 argument  1 = /var/folders/v1/k9l8hql13n1gcrjl_yh_gs5m0000gn/T/tmpfode2163/input_A_AB.txt
                                         
                                         


             Northwest Computational Chemistry Package (NWChem) 7.2.3
             --------------------------------------------------------


                    Environmental Molecular Sciences Laboratory
                       Pacific Northwest National Laboratory
                                Richland, WA 99352

                              Copyright (c) 1994-2022
                       Pacific Northwest National Laboratory
                            Battelle Memorial Institute

             NWChem is an open-source computational chemistry package
                        distributed under the terms of the
                      Educational Community License (ECL) 2.0
             A copy of the license is included with this distribution
                              in the LICENSE.TXT file

                                  ACKNOWLEDGMENT
                                  --------------

            This software and its documentation were developed at the
            EMSL at Pacific Northwest National Laboratory, a multiprogram
            national laboratory, operated for the U.S. Department of Energy
            by Battelle under Contract Number DE-AC05-76RL01830. Support
            for this work was provided by the Department of Energy Office
            of Biological and Environmental Research, Office of Basic
            Energy Sciences, and the Office of Advanced Scientific Computing.


           Job information
           ---------------

    hostname        = visitor-wireless1-147-155-221-109.ameslab.gov
    program         = nwchem
    date            = Wed Jul  2 12:44:28 2025

    compiled        = Thu_Dec_26_16:03:44_2024
    source          = /private/tmp/nwchem-20241226-24280-orrtsi/nwchem-7.2.3
    nwchem branch   = 7.2.3
    nwchem revision = d690e065
    ga revision     = 5.8.0
    use scalapack   = T
    input           = /var/folders/v1/k9l8hql13n1gcrjl_yh_gs5m0000gn/T/tmpfode2163/input_A_AB.txt
    prefix          = input_A_AB.
    data base       = ./input_A_AB.db
    status          = restart
    nproc           =        8
    time left       =     -1s



           Memory information
           ------------------

    heap     =  536870908 doubles =   4096.0 Mbytes
    stack    =  536870913 doubles =   4096.0 Mbytes
    global   = 1073741824 doubles =   8192.0 Mbytes (distinct from heap & stack)
    total    = 2147483645 doubles =  16384.0 Mbytes
    verify   = yes
    hardfail = no 


           Directory information
           ---------------------

  0 permanent = .
  0 scratch   = .


           Previous task information
           -------------------------

    Theory    = ccsd(t)                         
    Operation = energy                        
    Status    = ok                            
    Qmmm      = F
    Ignore    = F


           Geometries in the database
           --------------------------

       Name                              Natoms  Last Modified
       --------------------------------  ------  ------------------------
    1  geometry                               6  Wed Jul  2 12:42:29 2025  

  The geometry named "geometry" is the default for restart



           Basis sets in the database
           --------------------------

       Name                              Natoms  Last Modified
        --------------------------------  ------  ------------------------
    1  ao basis                               4  Wed Jul  2 12:42:29 2025  

  The basis set named "ao basis" is the default AO basis for restart




                                NWChem Input Module
                                -------------------



 Scaling coordinates for geometry "geometry" by  1.889725989
 (inverse scale =  0.529177249)

 CS  symmetry detected


                             Geometry "geometry" -> ""
                             -------------------------

 Output coordinates in angstroms (scale by  1.889725989 to convert to a.u.)

  No.       Tag          Charge          X              Y              Z
 ---- ---------------- ---------- -------------- -------------- --------------
    1 O                    8.0000    -0.11886969    -0.00498911     0.00000000
    2 H                    1.0000     0.47547875     0.01995642    -0.76109937
    3 H                    1.0000     0.47547875     0.01995642     0.76109937
    4 bqO                  0.0000    -0.03381486     1.59780071     0.00000000
    5 bqH                  0.0000    -0.05875394     2.19214837    -0.76109782
    6 bqH                  0.0000    -0.05875394     2.19214837     0.76109782

      Atomic Mass 
      ----------- 

      O                 15.994910
      H                  1.007825


 Effective nuclear repulsion energy (a.u.)       9.1125342017

            Nuclear Dipole moment (a.u.) 
            ----------------------------
        X                 Y               Z
 ---------------- ---------------- ----------------
     0.0000000000     0.0000000000     0.0000000000

      Symmetry information
      --------------------

 Group name             Cs        
 Group number              2
 Group order               2
 No. of unique centers     4

      Symmetry unique atoms

     1    2    4    5


            XYZ format geometry
            -------------------
     6
 geometry
 O                    -0.11886969    -0.00498911     0.00000000
 H                     0.47547875     0.01995642    -0.76109937
 H                     0.47547875     0.01995642     0.76109937
 bqO                  -0.03381486     1.59780071     0.00000000
 bqH                  -0.05875394     2.19214837    -0.76109782
 bqH                  -0.05875394     2.19214837     0.76109782

 ==============================================================================
                                internuclear distances
 ------------------------------------------------------------------------------
       center one      |      center two      | atomic units |  angstroms
 ------------------------------------------------------------------------------
    2 H                |   1 O                |     1.82546  |     0.96599
    3 H                |   1 O                |     1.82546  |     0.96599
    4 bqO              |   1 O                |     3.03310  |     1.60505
    4 bqO              |   2 H                |     3.44752  |     1.82435
    4 bqO              |   3 H                |     3.44752  |     1.82435
    5 bqH              |   1 O                |     4.39551  |     2.32600
    5 bqH              |   2 H                |     4.22717  |     2.23692
    5 bqH              |   4 bqO              |     1.82546  |     0.96599
    6 bqH              |   1 O                |     4.39551  |     2.32600
    6 bqH              |   3 H                |     4.22717  |     2.23692
    6 bqH              |   4 bqO              |     1.82546  |     0.96599
    6 bqH              |   5 bqH              |     2.87653  |     1.52220
 ------------------------------------------------------------------------------
                         number of included internuclear distances:         12
 ==============================================================================



 ==============================================================================
                                 internuclear angles
 ------------------------------------------------------------------------------
        center 1       |       center 2       |       center 3       |  degrees
 ------------------------------------------------------------------------------
    2 H                |   1 O                |   3 H                |   103.98
    2 H                |   1 O                |   4 bqO              |    86.65
    1 O                |   2 H                |   5 bqH              |    83.00
    2 H                |   1 O                |   6 bqH              |   102.56
    3 H                |   1 O                |   4 bqO              |    86.65
    3 H                |   1 O                |   5 bqH              |   102.56
    1 O                |   3 H                |   6 bqH              |    83.00
    1 O                |   4 bqO              |   5 bqH              |   127.81
    1 O                |   4 bqO              |   6 bqH              |   127.81
    5 bqH              |   1 O                |   6 bqH              |    38.20
    2 H                |   1 O                |   4 bqO              |    86.65
    1 O                |   2 H                |   5 bqH              |    83.00
    2 H                |   4 bqO              |   5 bqH              |   102.16
    3 H                |   1 O                |   4 bqO              |    86.65
    1 O                |   3 H                |   6 bqH              |    83.00
    3 H                |   4 bqO              |   6 bqH              |   102.16
    4 bqO              |   1 O                |   2 H                |    86.65
    4 bqO              |   1 O                |   3 H                |    86.65
    1 O                |   4 bqO              |   5 bqH              |   127.81
    1 O                |   4 bqO              |   6 bqH              |   127.81
    2 H                |   4 bqO              |   3 H                |    49.31
    2 H                |   4 bqO              |   5 bqH              |   102.16
    2 H                |   4 bqO              |   6 bqH              |   150.23
    3 H                |   4 bqO              |   5 bqH              |   150.23
    3 H                |   4 bqO              |   6 bqH              |   102.16
    5 bqH              |   4 bqO              |   6 bqH              |   103.98
    5 bqH              |   2 H                |   1 O                |    83.00
    5 bqH              |   4 bqO              |   1 O                |   127.81
    5 bqH              |   1 O                |   6 bqH              |    38.20
    5 bqH              |   4 bqO              |   2 H                |   102.16
    2 H                |   5 bqH              |   6 bqH              |    90.00
    5 bqH              |   4 bqO              |   6 bqH              |   103.98
    6 bqH              |   3 H                |   1 O                |    83.00
    6 bqH              |   4 bqO              |   1 O                |   127.81
    6 bqH              |   1 O                |   5 bqH              |    38.20
    6 bqH              |   4 bqO              |   3 H                |   102.16
    3 H                |   6 bqH              |   5 bqH              |    90.00
    6 bqH              |   4 bqO              |   5 bqH              |   103.98
 ------------------------------------------------------------------------------
                            number of included internuclear angles:         38
 ==============================================================================



  library name resolved from: environment
  library file name is: </opt/homebrew/Caskroom/mambaforge/base/envs/ames/share/nwchem/libraries/>
  
                      Basis "ao basis" -> "" (spherical)
                      -----
  O (Oxygen)
  ----------
            Exponent  Coefficients 
       -------------- ---------------------------------------------------------
  1 S  1.17200000E+04  0.000710
  1 S  1.75900000E+03  0.005470
  1 S  4.00800000E+02  0.027837
  1 S  1.13700000E+02  0.104800
  1 S  3.70300000E+01  0.283062
  1 S  1.32700000E+01  0.448719
  1 S  5.02500000E+00  0.270952
  1 S  1.01300000E+00  0.015458

  2 S  1.17200000E+04 -0.000160
  2 S  1.75900000E+03 -0.001263
  2 S  4.00800000E+02 -0.006267
  2 S  1.13700000E+02 -0.025716
  2 S  3.70300000E+01 -0.070924
  2 S  1.32700000E+01 -0.165411
  2 S  5.02500000E+00 -0.116955
  2 S  1.01300000E+00  0.557368

  3 S  3.02300000E-01  1.000000

  4 S  7.89600000E-02  1.000000

  5 P  1.77000000E+01  0.043018
  5 P  3.85400000E+00  0.228913
  5 P  1.04600000E+00  0.508728

  6 P  2.75300000E-01  1.000000

  7 P  6.85600000E-02  1.000000

  8 D  1.18500000E+00  1.000000

  9 D  3.32000000E-01  1.000000

  H (Hydrogen)
  ------------
            Exponent  Coefficients 
       -------------- ---------------------------------------------------------
  1 S  1.30100000E+01  0.019685
  1 S  1.96200000E+00  0.137977
  1 S  4.44600000E-01  0.478148

  2 S  1.22000000E-01  1.000000

  3 S  2.97400000E-02  1.000000

  4 P  7.27000000E-01  1.000000

  5 P  1.41000000E-01  1.000000

  bqO
  ---
            Exponent  Coefficients 
       -------------- ---------------------------------------------------------
  1 S  1.17200000E+04  0.000710
  1 S  1.75900000E+03  0.005470
  1 S  4.00800000E+02  0.027837
  1 S  1.13700000E+02  0.104800
  1 S  3.70300000E+01  0.283062
  1 S  1.32700000E+01  0.448719
  1 S  5.02500000E+00  0.270952
  1 S  1.01300000E+00  0.015458

  2 S  1.17200000E+04 -0.000160
  2 S  1.75900000E+03 -0.001263
  2 S  4.00800000E+02 -0.006267
  2 S  1.13700000E+02 -0.025716
  2 S  3.70300000E+01 -0.070924
  2 S  1.32700000E+01 -0.165411
  2 S  5.02500000E+00 -0.116955
  2 S  1.01300000E+00  0.557368

  3 S  3.02300000E-01  1.000000

  4 S  7.89600000E-02  1.000000

  5 P  1.77000000E+01  0.043018
  5 P  3.85400000E+00  0.228913
  5 P  1.04600000E+00  0.508728

  6 P  2.75300000E-01  1.000000

  7 P  6.85600000E-02  1.000000

  8 D  1.18500000E+00  1.000000

  9 D  3.32000000E-01  1.000000

  bqH
  ---
            Exponent  Coefficients 
       -------------- ---------------------------------------------------------
  1 S  1.30100000E+01  0.019685
  1 S  1.96200000E+00  0.137977
  1 S  4.44600000E-01  0.478148

  2 S  1.22000000E-01  1.000000

  3 S  2.97400000E-02  1.000000

  4 P  7.27000000E-01  1.000000

  5 P  1.41000000E-01  1.000000



 Summary of "ao basis" -> "" (spherical)
 ------------------------------------------------------------------------------
       Tag                 Description            Shells   Functions and Types
 ---------------- ------------------------------  ------  ---------------------
 O                        aug-cc-pvdz                9       23   4s3p2d
 H                        aug-cc-pvdz                5        9   3s2p
 bqO                      aug-cc-pvdz                9       23   4s3p2d
 bqH                      aug-cc-pvdz                5        9   3s2p


                                 NWChem SCF Module
                                 -----------------



  ao basis        = "ao basis"
  functions       =    82
  atoms           =     6
  closed shells   =     5
  open shells     =     0
  charge          =   0.00
  wavefunction    = RHF 
  input vectors   = ./input_A_AB.movecs
  output vectors  = ./input_A_AB.movecs
  use symmetry    = T
  symmetry adapt  = T


 Summary of "ao basis" -> "ao basis" (spherical)
 ------------------------------------------------------------------------------
       Tag                 Description            Shells   Functions and Types
 ---------------- ------------------------------  ------  ---------------------
 O                        aug-cc-pvdz                9       23   4s3p2d
 H                        aug-cc-pvdz                5        9   3s2p
 bqO                      aug-cc-pvdz                9       23   4s3p2d
 bqH                      aug-cc-pvdz                5        9   3s2p


      Symmetry analysis of basis
      --------------------------

        a'         50
        a"         32


 Forming initial guess at       0.1s


 Loading old vectors from job with title :




      Symmetry analysis of molecular orbitals - initial
      -------------------------------------------------


 !! scf_movecs_sym_adapt:   82 vectors were symmetry contaminated

  Symmetry fudging

 !! scf_movecs_sym_adapt:   80 vectors were symmetry contaminated

  Numbering of irreducible representations: 

     1 a'          2 a"      

  Orbital symmetries:

     1 a'          2 a'          3 a"          4 a'          5 a'      
     6 a'          7 a'          8 a"          9 a"         10 a"      
    11 a'         12 a'         13 a'         14 a'         15 a'      


 Starting SCF solution at       0.1s



 ----------------------------------------------
         Quadratically convergent ROHF

 Convergence threshold     :          1.000E-06
 Maximum no. of iterations :           30
 Final Fock-matrix accuracy:          1.000E-08
 ----------------------------------------------


 Integral file          = ./input_A_AB.aoints.0
 Record size in doubles =  65536        No. of integs per rec  =  43688
 Max. records in memory =     17        Max. records in file   =    900
 No. of bits per label  =      8        No. of bits per value  =     64


 #quartets = 1.546D+05 #integrals = 3.169D+06 #direct =  0.0% #cached =100.0%


File balance: exchanges=    15  moved=    11  time=   0.0


 !!       2 symmetry forbidden rotations with max =  1.14D-02


              iter       energy          gnorm     gmax       time
             ----- ------------------- --------- --------- --------
                 1      -76.0401304672  1.58D-01  4.39D-02      0.4
                 2      -76.0415173104  8.56D-03  2.69D-03      0.6
                 3      -76.0415264130  2.61D-05  1.60D-05      0.8
                 4      -76.0415264131  9.06D-08  3.15D-08      1.1


       Final RHF  results 
       ------------------ 

         Total SCF energy =    -76.041526413077
      One-electron energy =   -122.831441048250
      Two-electron energy =     37.677380433490
 Nuclear repulsion energy =      9.112534201683

        Time for solution =      1.1s



       Symmetry analysis of molecular orbitals - final
       -----------------------------------------------

  Numbering of irreducible representations: 

     1 a'          2 a"      

  Orbital symmetries:

     1 a'          2 a'          3 a"          4 a'          5 a'      
     6 a'          7 a"          8 a'          9 a"         10 a'      
    11 a'         12 a'         13 a'         14 a"         15 a'      

             Final eigenvalues
             -----------------

              1      
    1  -20.5796
    2   -1.3522
    3   -0.7132
    4   -0.5846
    5   -0.5088
    6    0.0326
    7    0.0547
    8    0.0562
    9    0.0846
   10    0.1417
   11    0.1807
   12    0.1967
   13    0.2049
   14    0.2095
   15    0.2370

                       ROHF Final Molecular Orbital Analysis
                       -------------------------------------

 Vector    2  Occ=2.000000D+00  E=-1.352249D+00  Symmetry=a'
              MO Center=  4.9D-02,  2.1D-03,  3.1D-17, r^2= 5.0D-01
   Bfn.  Coefficient  Atom+Function         Bfn.  Coefficient  Atom+Function  
  ----- ------------  ---------------      ----- ------------  ---------------
     2      0.446607  1 O  s                  3      0.390179  1 O  s          
    24      0.204502  2 H  s                 33      0.204502  3 H  s          

 Vector    3  Occ=2.000000D+00  E=-7.131791D-01  Symmetry=a"
              MO Center=  9.5D-02,  4.1D-03, -9.6D-16, r^2= 7.7D-01
   Bfn.  Coefficient  Atom+Function         Bfn.  Coefficient  Atom+Function  
  ----- ------------  ---------------      ----- ------------  ---------------
     7      0.499154  1 O  pz                24     -0.350278  2 H  s          
    33      0.350278  3 H  s                 10      0.201880  1 O  pz         

 Vector    4  Occ=2.000000D+00  E=-5.845533D-01  Symmetry=a'
              MO Center= -1.5D-01, -6.4D-03,  7.1D-17, r^2= 7.3D-01
   Bfn.  Coefficient  Atom+Function         Bfn.  Coefficient  Atom+Function  
  ----- ------------  ---------------      ----- ------------  ---------------
     5      0.546856  1 O  px                 8      0.325168  1 O  px         
     3     -0.319772  1 O  s                 24      0.212424  2 H  s          
    33      0.212424  3 H  s                  2     -0.151459  1 O  s          

 Vector    5  Occ=2.000000D+00  E=-5.087519D-01  Symmetry=a'
              MO Center= -7.9D-02, -3.7D-03,  2.7D-16, r^2= 6.8D-01
   Bfn.  Coefficient  Atom+Function         Bfn.  Coefficient  Atom+Function  
  ----- ------------  ---------------      ----- ------------  ---------------
     6      0.625561  1 O  py                 9      0.482582  1 O  py         

 Vector    6  Occ=0.000000D+00  E= 3.262784D-02  Symmetry=a'
              MO Center=  6.6D-01,  8.2D-01,  4.8D-16, r^2= 1.2D+01
   Bfn.  Coefficient  Atom+Function         Bfn.  Coefficient  Atom+Function  
  ----- ------------  ---------------      ----- ------------  ---------------
    45      1.221764  4 bq s                  4      0.676548  1 O  s          
    26     -0.591372  2 H  s                 35     -0.591372  3 H  s          
    67     -0.344857  5 bq s                 76     -0.344857  6 bq s          
    66     -0.317747  5 bq s                 75     -0.317747  6 bq s          
    25     -0.234303  2 H  s                 34     -0.234303  3 H  s          

 Vector    7  Occ=0.000000D+00  E= 5.473416D-02  Symmetry=a"
              MO Center=  5.1D-01,  8.8D-01, -2.4D-15, r^2= 1.7D+01
   Bfn.  Coefficient  Atom+Function         Bfn.  Coefficient  Atom+Function  
  ----- ------------  ---------------      ----- ------------  ---------------
    26      1.951627  2 H  s                 35     -1.951627  3 H  s          
    67      1.384065  5 bq s                 76     -1.384065  6 bq s          
    54      0.698029  4 bq pz                13      0.457434  1 O  pz         
    25      0.451392  2 H  s                 34     -0.451392  3 H  s          
    66      0.444428  5 bq s                 75     -0.444428  6 bq s          

 Vector    8  Occ=0.000000D+00  E= 5.623951D-02  Symmetry=a'
              MO Center=  3.0D-01,  1.6D+00, -2.2D-17, r^2= 1.8D+01
   Bfn.  Coefficient  Atom+Function         Bfn.  Coefficient  Atom+Function  
  ----- ------------  ---------------      ----- ------------  ---------------
    67     -1.342575  5 bq s                 76     -1.342575  6 bq s          
    53      1.266408  4 bq py                26      1.233196  2 H  s          
    35      1.233196  3 H  s                 12      0.676071  1 O  py         
     4      0.488311  1 O  s                 66     -0.301384  5 bq s          
    75     -0.301384  6 bq s                 25      0.202444  2 H  s          

 Vector    9  Occ=0.000000D+00  E= 8.461578D-02  Symmetry=a"
              MO Center=  2.4D-01,  1.6D+00, -7.7D-15, r^2= 2.1D+01
   Bfn.  Coefficient  Atom+Function         Bfn.  Coefficient  Atom+Function  
  ----- ------------  ---------------      ----- ------------  ---------------
    67     -4.095606  5 bq s                 76      4.095606  6 bq s          
    26      3.805685  2 H  s                 35     -3.805685  3 H  s          
    54     -1.046644  4 bq pz                13      0.874242  1 O  pz         
    66     -0.555661  5 bq s                 75      0.555661  6 bq s          
    25      0.452900  2 H  s                 34     -0.452900  3 H  s          

 Vector   10  Occ=0.000000D+00  E= 1.416592D-01  Symmetry=a'
              MO Center= -2.2D-01,  6.8D-01,  2.9D-15, r^2= 9.6D+00
   Bfn.  Coefficient  Atom+Function         Bfn.  Coefficient  Atom+Function  
  ----- ------------  ---------------      ----- ------------  ---------------
     4      6.972944  1 O  s                 45     -2.637947  4 bq s          
    12      2.061548  1 O  py                53      1.984657  4 bq py         
    25     -1.929787  2 H  s                 34     -1.929787  3 H  s          
    11      1.303096  1 O  px                52      0.885459  4 bq px         
    67     -0.428360  5 bq s                 76     -0.428360  6 bq s          

 Vector   11  Occ=0.000000D+00  E= 1.806787D-01  Symmetry=a'
              MO Center= -1.3D-01,  2.1D+00,  6.8D-16, r^2= 9.2D+00
   Bfn.  Coefficient  Atom+Function         Bfn.  Coefficient  Atom+Function  
  ----- ------------  ---------------      ----- ------------  ---------------
    45      4.285691  4 bq s                 53      2.011049  4 bq py         
    66     -1.488508  5 bq s                 75     -1.488508  6 bq s          
    67     -0.984829  5 bq s                 76     -0.984829  6 bq s          
    12     -0.634432  1 O  py                52     -0.578003  4 bq px         
     4      0.554101  1 O  s                 73     -0.323410  5 bq pz         

 Vector   12  Occ=0.000000D+00  E= 1.967456D-01  Symmetry=a'
              MO Center=  3.7D-02,  4.9D-01,  5.8D-15, r^2= 9.8D+00
   Bfn.  Coefficient  Atom+Function         Bfn.  Coefficient  Atom+Function  
  ----- ------------  ---------------      ----- ------------  ---------------
     4      6.736655  1 O  s                 45     -5.235884  4 bq s          
    11      2.664684  1 O  px                52     -1.880644  4 bq px         
    25     -1.782837  2 H  s                 34     -1.782837  3 H  s          
    53      1.600033  4 bq py                12      1.505787  1 O  py         
    66      0.669725  5 bq s                 75      0.669725  6 bq s          

 Vector   13  Occ=0.000000D+00  E= 2.049223D-01  Symmetry=a'
              MO Center=  6.7D-01,  5.3D-01,  7.7D-15, r^2= 1.0D+01
   Bfn.  Coefficient  Atom+Function         Bfn.  Coefficient  Atom+Function  
  ----- ------------  ---------------      ----- ------------  ---------------
    45      3.869970  4 bq s                 53     -3.646353  4 bq py         
    12     -1.627308  1 O  py                 4     -1.551487  1 O  s          
    26     -1.313298  2 H  s                 35     -1.313298  3 H  s          
    67      0.875582  5 bq s                 76      0.875582  6 bq s          
    25     -0.728109  2 H  s                 34     -0.728109  3 H  s          

 Vector   14  Occ=0.000000D+00  E= 2.094648D-01  Symmetry=a"
              MO Center=  1.1D-01,  1.6D+00,  2.6D-14, r^2= 1.1D+01
   Bfn.  Coefficient  Atom+Function         Bfn.  Coefficient  Atom+Function  
  ----- ------------  ---------------      ----- ------------  ---------------
    54      3.436770  4 bq pz                67      2.367139  5 bq s          
    76     -2.367139  6 bq s                 66      2.032837  5 bq s          
    75     -2.032837  6 bq s                 25      1.025482  2 H  s          
    34     -1.025482  3 H  s                 26      0.675981  2 H  s          
    35     -0.675981  3 H  s                 72     -0.361643  5 bq py         

 Vector   15  Occ=0.000000D+00  E= 2.370080D-01  Symmetry=a'
              MO Center= -3.9D-01, -4.3D-01,  2.9D-16, r^2= 8.0D+00
   Bfn.  Coefficient  Atom+Function         Bfn.  Coefficient  Atom+Function  
  ----- ------------  ---------------      ----- ------------  ---------------
    12      2.500377  1 O  py                45     -2.166619  4 bq s          
    26      0.718242  2 H  s                 35      0.718242  3 H  s          
    11     -0.568803  1 O  px                67     -0.545402  5 bq s          
    76     -0.545402  6 bq s                  4      0.476498  1 O  s          
    25      0.376570  2 H  s                 34      0.376570  3 H  s          

 Vector   16  Occ=0.000000D+00  E= 2.423151D-01  Symmetry=a"
              MO Center= -4.1D-01, -2.9D-01, -1.9D-15, r^2= 9.3D+00
   Bfn.  Coefficient  Atom+Function         Bfn.  Coefficient  Atom+Function  
  ----- ------------  ---------------      ----- ------------  ---------------
    13      3.863802  1 O  pz                26      2.839727  2 H  s          
    35     -2.839727  3 H  s                 25      2.613492  2 H  s          
    34     -2.613492  3 H  s                 54     -2.276350  4 bq pz         
    67     -1.750454  5 bq s                 76      1.750454  6 bq s          
    66     -0.954148  5 bq s                 75      0.954148  6 bq s          

 Vector   17  Occ=0.000000D+00  E= 2.939396D-01  Symmetry=a"
              MO Center=  4.7D-01,  3.1D-01,  3.0D-16, r^2= 6.3D+00
   Bfn.  Coefficient  Atom+Function         Bfn.  Coefficient  Atom+Function  
  ----- ------------  ---------------      ----- ------------  ---------------
    67     -1.692466  5 bq s                 76      1.692466  6 bq s          
    26      1.595846  2 H  s                 35     -1.595846  3 H  s          
    54     -1.465823  4 bq pz                66     -0.994100  5 bq s          
    75      0.994100  6 bq s                 32      0.709576  2 H  pz         
    41      0.709576  3 H  pz                30     -0.625238  2 H  px         

 Vector   18  Occ=0.000000D+00  E= 3.230167D-01  Symmetry=a'
              MO Center=  2.4D-01,  7.9D-01,  1.0D-15, r^2= 6.5D+00
   Bfn.  Coefficient  Atom+Function         Bfn.  Coefficient  Atom+Function  
  ----- ------------  ---------------      ----- ------------  ---------------
    45      9.762440  4 bq s                  4     -6.437671  1 O  s          
    53     -4.041910  4 bq py                12     -2.453218  1 O  py         
    66     -1.675575  5 bq s                 75     -1.675575  6 bq s          
    25     -0.754240  2 H  s                 34     -0.754240  3 H  s          
    72      0.625465  5 bq py                81      0.625465  6 bq py         

 Vector   19  Occ=0.000000D+00  E= 3.369985D-01  Symmetry=a'
              MO Center= -1.9D-01,  1.0D+00,  2.1D-15, r^2= 6.9D+00
   Bfn.  Coefficient  Atom+Function         Bfn.  Coefficient  Atom+Function  
  ----- ------------  ---------------      ----- ------------  ---------------
     4      8.185904  1 O  s                 45     -5.039944  4 bq s          
    53      3.736275  4 bq py                12      2.640326  1 O  py         
    25     -1.106434  2 H  s                 34     -1.106434  3 H  s          
    30      0.801038  2 H  px                39      0.801038  3 H  px         
    66     -0.544967  5 bq s                 75     -0.544967  6 bq s          

 Vector   20  Occ=0.000000D+00  E= 4.313356D-01  Symmetry=a"
              MO Center=  9.3D-02,  1.6D+00, -1.3D-15, r^2= 6.4D+00
   Bfn.  Coefficient  Atom+Function         Bfn.  Coefficient  Atom+Function  
  ----- ------------  ---------------      ----- ------------  ---------------
    54      1.548764  4 bq pz                66      1.493013  5 bq s          
    75     -1.493013  6 bq s                 25      1.472052  2 H  s          
    34     -1.472052  3 H  s                 32      0.607230  2 H  pz         
    41      0.607230  3 H  pz                72      0.538885  5 bq py         
    81     -0.538885  6 bq py                31     -0.419056  2 H  py         

 Vector   21  Occ=0.000000D+00  E= 4.333888D-01  Symmetry=a'
              MO Center= -2.6D-02,  1.4D+00,  4.4D-15, r^2= 6.7D+00
   Bfn.  Coefficient  Atom+Function         Bfn.  Coefficient  Atom+Function  
  ----- ------------  ---------------      ----- ------------  ---------------
    45     13.069683  4 bq s                  4     -7.872351  1 O  s          
    66     -4.410081  5 bq s                 75     -4.410081  6 bq s          
    12     -2.151503  1 O  py                25      1.449863  2 H  s          
    34      1.449863  3 H  s                 30     -0.527334  2 H  px         
    39     -0.527334  3 H  px                31     -0.385834  2 H  py         

 Vector   22  Occ=0.000000D+00  E= 4.633413D-01  Symmetry=a"
              MO Center= -1.6D-01,  1.9D+00, -2.8D-15, r^2= 5.5D+00
   Bfn.  Coefficient  Atom+Function         Bfn.  Coefficient  Atom+Function  
  ----- ------------  ---------------      ----- ------------  ---------------
    54      1.963783  4 bq pz                13     -1.442638  1 O  pz         
    71      1.098233  5 bq px                80     -1.098233  6 bq px         
    66      1.050911  5 bq s                 75     -1.050911  6 bq s          
    67      0.816071  5 bq s                 76     -0.816071  6 bq s          
    26     -0.594191  2 H  s                 35      0.594191  3 H  s          

 Vector   23  Occ=0.000000D+00  E= 4.672047D-01  Symmetry=a'
              MO Center= -4.4D-03,  3.1D-01,  1.6D-15, r^2= 6.0D+00
   Bfn.  Coefficient  Atom+Function         Bfn.  Coefficient  Atom+Function  
  ----- ------------  ---------------      ----- ------------  ---------------
     4      9.522908  1 O  s                 25     -3.779847  2 H  s          
    34     -3.779847  3 H  s                 45     -2.899197  4 bq s          
    12      2.337086  1 O  py                11      1.516429  1 O  px         
    52      1.073292  4 bq px                 8      0.826434  1 O  px         
    53      0.804279  4 bq py                31     -0.610218  2 H  py         

 Vector   24  Occ=0.000000D+00  E= 4.879075D-01  Symmetry=a'
              MO Center=  2.5D-02,  1.9D+00,  4.4D-15, r^2= 5.7D+00
   Bfn.  Coefficient  Atom+Function         Bfn.  Coefficient  Atom+Function  
  ----- ------------  ---------------      ----- ------------  ---------------
    45      3.442617  4 bq s                 66     -1.946268  5 bq s          
    75     -1.946268  6 bq s                 53      1.725839  4 bq py         
    73     -1.054550  5 bq pz                82      1.054550  6 bq pz         
    44      0.834155  4 bq s                  4      0.717818  1 O  s          
    67     -0.615659  5 bq s                 76     -0.615659  6 bq s          

 Vector   25  Occ=0.000000D+00  E= 5.009748D-01  Symmetry=a"
              MO Center=  1.7D-01,  1.4D+00, -8.4D-15, r^2= 6.8D+00
   Bfn.  Coefficient  Atom+Function         Bfn.  Coefficient  Atom+Function  
  ----- ------------  ---------------      ----- ------------  ---------------
    54      4.665852  4 bq pz                66      3.084821  5 bq s          
    75     -3.084821  6 bq s                 67      1.704451  5 bq s          
    76     -1.704451  6 bq s                 31      0.785340  2 H  py         
    40     -0.785340  3 H  py                32     -0.767321  2 H  pz         
    41     -0.767321  3 H  pz                72     -0.639257  5 bq py         


 center of mass
 --------------
 x =  -0.09893328 y =  -0.00415235 z =   0.00000000

 moments of inertia (a.u.)
 ------------------
           4.173588659590          -0.094776624794           0.000000000000
          -0.094776624794           6.427744346037           0.000000000000
           0.000000000000           0.000000000000           2.262111467892

  Mulliken analysis of the total density
  --------------------------------------

    Atom       Charge   Shell Charges
 -----------   ------   -------------------------------------------------------
    1 O    8     8.39   2.00  0.84  0.84  0.07  2.81  1.70  0.13  0.01 -0.02
    2 H    1     0.83   0.72  0.00 -0.00  0.08  0.03
    3 H    1     0.83   0.72  0.00 -0.00  0.08  0.03
    4 X    0    -0.06   0.00  0.00 -0.02  0.00  0.00 -0.04  0.00  0.00 -0.01
    5 X    0    -0.00   0.00 -0.00 -0.00  0.00  0.00
    6 X    0    -0.00   0.00 -0.00 -0.00  0.00  0.00

       Multipole analysis of the density wrt the origin
       ------------------------------------------------

     L   x y z        total         open         nuclear
     -   - - -        -----         ----         -------
     0   0 0 0     -0.000000      0.000000     10.000000

     1   1 0 0      0.787366      0.000000      0.000000
     1   0 1 0      0.033624      0.000000      0.000000
     1   0 0 1      0.000000      0.000000      0.000000

     2   2 0 0     -4.649510      0.000000      2.018366
     2   1 1 0      0.034144      0.000000      0.084713
     2   1 0 1      0.000000      0.000000      0.000000
     2   0 2 0     -5.653890      0.000000      0.003556
     2   0 1 1      0.000000      0.000000      0.000000
     2   0 0 2     -3.179502      0.000000      4.137237


------------------------------------------------------------
EAF file 0: "./input_A_AB.aoints.0" size=2621440 bytes
------------------------------------------------------------
               write      read    awrite     aread      wait
               -----      ----    ------     -----      ----
     calls:        5         2         0         3         3
   data(b): 2.62e+06  1.05e+06  0.00e+00  1.57e+06
   time(s): 0.00e+00  0.00e+00  0.00e+00  0.00e+00  0.00e+00
rate(mb/s): 0.00e+00  0.00e+00
------------------------------------------------------------


 Parallel integral file used      76 records with       0 large values



                   Four-Index Transformation
                   -------------------------
          Number of basis functions:             82
          Number of shells:                      38
          Number of occupied orbitals:            5
          Number of occ. correlated orbitals:     5
          Block length:                          16
          Superscript MO index range:      1 -    5
          Subscript MO index range:        1 -   82
          MO coefficients read from:  ./input_A_AB.movecs      
          Number of operator matrices in core:   30
          Half-transformed integrals produced

     Pass:    1     Index range:    1  -    5     Time:      1.05
 ------------------------------------------
 MP2 Energy (coupled cluster initial guess)
 ------------------------------------------
 Reference energy:            -76.041526413076639
 MP2 Corr. energy:             -0.224784607710053
 Total MP2 energy:            -76.266311020786688


 ****************************************************************************
              the segmented parallel ccsd program:    8 nodes
 ****************************************************************************




 level of theory    ccsd(t)
 number of core         0
 number of occupied     5
 number of virtual     77
 number of deleted      0
 total functions       82
 number of shells      38
 basis label          566



   ***** ccsd parameters *****
   iprt   =     0
   convi  =  0.100E-05
   maxit  =    20
   mxvec  =     5
 memory           1073731948
  Using  1 OpenMP thread(s) in CCSD
  avail0,avail1,avail0-avail1                  3779                 3779                    0
  avail0,avail1,avail0-avail1                  3779                 3779                    0
  avail0,avail1,avail0-avail1                  3779                 3790                  -11
  avail0,avail1,avail0-avail1                  3779                 3795                  -16
  Restarting from old vector in ./input_A_AB.t2


-------------------------------------------------------------------------
 iter     correlation     delta       rms       T2     Non-T2      Main
             energy      energy      error      ampl     ampl      Block
                                                time     time      time
-------------------------------------------------------------------------
   1     -0.2258997241 -2.259D-01  3.453D-02     2.33     0.01     2.23
   2     -0.2267684208 -8.687D-04  9.927D-02     1.71     0.00     1.63
   3     -0.2309471313 -4.179D-03  2.306D-02     1.74     0.00     1.65
   4     -0.2316196754 -6.725D-04  7.903D-03     1.62     0.00     1.54
   5     -0.2320032303 -3.836D-04  6.832D-04     1.62     0.00     1.54
   6     -0.2320996060 -9.638D-05  1.259D-03     1.63     0.00     1.56
   7     -0.2320940660  5.540D-06  2.383D-04     1.67     0.00     1.59
   8     -0.2320904424  3.624D-06  9.011D-05     1.61     0.00     1.54
   9     -0.2320877593  2.683D-06  2.678D-05     1.66     0.00     1.59
  10     -0.2320867769  9.823D-07  1.344D-05     1.73     0.00     1.65
  11     -0.2320869827 -2.057D-07  5.654D-06     1.67     0.00     1.60
  12     -0.2320872088 -2.261D-07  2.030D-06     1.71     0.00     1.64
  13     -0.2320873348 -1.260D-07  8.289D-07     1.66     0.00     1.58
                  *************converged*************
-------------------------------------------------------------------------

 -----------
 CCSD Energy
 -----------
 Reference energy:             -76.041526413076639
 CCSD corr. energy:             -0.232087334764781
 Total CCSD energy:            -76.273613747841424


 --------------------------------
 Spin Component Scaled (SCS) CCSD
 --------------------------------
 Same spin contribution:                 -0.050668034903557
 Same spin scaling factor:                1.130000000000000
 Opposite spin contribution:             -0.181419299861224
 Opposite spin scaling fact.:             1.270000000000000
 SCS-CCSD correlation energy:            -0.287657390264774
 Total SCS-CCSD energy:                 -76.329183803341408
 memory           1073731948


*********triples calculation*********

nkpass=    1; nvpass=    1; memdrv=         170401; memtrn=         942207; memavail=     1073731548
 memory available/node                     1073731548
 total number of virtual orbitals        77
 number of virtuals per integral pass    77
 number of integral evaluations           1
 number of occupied per triples pass      5
 number of triples passes                 1

 commencing integral evaluation        1 at          24.98
  symmetry use  T
task         2 out of       741 done   0%  at       0.1 secs
task        60 out of       741 done   8%  at       0.2 secs
task        78 out of       741 done  10%  at       0.2 secs
task       114 out of       741 done  15%  at       0.4 secs
task       166 out of       741 done  22%  at       0.5 secs
task       191 out of       741 done  25%  at       0.5 secs
task       242 out of       741 done  32%  at       0.6 secs
task       278 out of       741 done  37%  at       0.6 secs
task       299 out of       741 done  40%  at       0.7 secs
task       339 out of       741 done  45%  at       0.7 secs
task       409 out of       741 done  55%  at       0.8 secs
task       450 out of       741 done  60%  at       0.8 secs
task       495 out of       741 done  66%  at       0.9 secs
task       541 out of       741 done  73%  at       0.9 secs
task       574 out of       741 done  77%  at       0.9 secs
task       598 out of       741 done  80%  at       0.9 secs
task       637 out of       741 done  85%  at       0.9 secs
task       672 out of       741 done  90%  at       1.0 secs
task       705 out of       741 done  95%  at       1.0 secs
 commencing triples evaluation - blocking       1
 ccsd(t): done        1 out of       77 progress:    1.3%
 ccsd(t): done        2 out of       77 progress:    2.6%
 ccsd(t): done        3 out of       77 progress:    3.9%
 ccsd(t): done        4 out of       77 progress:    5.2%
 ccsd(t): done        5 out of       77 progress:    6.5%
 ccsd(t): done        6 out of       77 progress:    7.8%
 ccsd(t): done        7 out of       77 progress:    9.1%
 ccsd(t): done        8 out of       77 progress:   10.4%
 ccsd(t): done        9 out of       77 progress:   11.7%
 ccsd(t): done       10 out of       77 progress:   13.0%
 ccsd(t): done       11 out of       77 progress:   14.3%
 ccsd(t): done       12 out of       77 progress:   15.6%
 ccsd(t): done       13 out of       77 progress:   16.9%
 ccsd(t): done       14 out of       77 progress:   18.2%
 ccsd(t): done       15 out of       77 progress:   19.5%
 ccsd(t): done       16 out of       77 progress:   20.8%
 ccsd(t): done       17 out of       77 progress:   22.1%
 ccsd(t): done       18 out of       77 progress:   23.4%
 ccsd(t): done       19 out of       77 progress:   24.7%
 ccsd(t): done       20 out of       77 progress:   26.0%
 ccsd(t): done       21 out of       77 progress:   27.3%
 ccsd(t): done       22 out of       77 progress:   28.6%
 ccsd(t): done       23 out of       77 progress:   29.9%
 ccsd(t): done       24 out of       77 progress:   31.2%
 ccsd(t): done       25 out of       77 progress:   32.5%
 ccsd(t): done       26 out of       77 progress:   33.8%
 ccsd(t): done       27 out of       77 progress:   35.1%
 ccsd(t): done       28 out of       77 progress:   36.4%
 ccsd(t): done       29 out of       77 progress:   37.7%
 ccsd(t): done       30 out of       77 progress:   39.0%
 ccsd(t): done       31 out of       77 progress:   40.3%
 ccsd(t): done       32 out of       77 progress:   41.6%
 ccsd(t): done       33 out of       77 progress:   42.9%
 ccsd(t): done       34 out of       77 progress:   44.2%
 ccsd(t): done       35 out of       77 progress:   45.5%
 ccsd(t): done       36 out of       77 progress:   46.8%
 ccsd(t): done       37 out of       77 progress:   48.1%
 ccsd(t): done       38 out of       77 progress:   49.4%
 ccsd(t): done       39 out of       77 progress:   50.6%
 ccsd(t): done       40 out of       77 progress:   51.9%
 ccsd(t): done       41 out of       77 progress:   53.2%
 ccsd(t): done       42 out of       77 progress:   54.5%
 ccsd(t): done       43 out of       77 progress:   55.8%
 ccsd(t): done       44 out of       77 progress:   57.1%
 ccsd(t): done       45 out of       77 progress:   58.4%
 ccsd(t): done       46 out of       77 progress:   59.7%
 ccsd(t): done       47 out of       77 progress:   61.0%
 ccsd(t): done       48 out of       77 progress:   62.3%
 ccsd(t): done       49 out of       77 progress:   63.6%
 ccsd(t): done       50 out of       77 progress:   64.9%
 ccsd(t): done       51 out of       77 progress:   66.2%
 ccsd(t): done       52 out of       77 progress:   67.5%
 ccsd(t): done       53 out of       77 progress:   68.8%
 ccsd(t): done       54 out of       77 progress:   70.1%
 ccsd(t): done       55 out of       77 progress:   71.4%
 ccsd(t): done       56 out of       77 progress:   72.7%
 ccsd(t): done       57 out of       77 progress:   74.0%
 ccsd(t): done       58 out of       77 progress:   75.3%
 ccsd(t): done       59 out of       77 progress:   76.6%
 ccsd(t): done       60 out of       77 progress:   77.9%
 ccsd(t): done       61 out of       77 progress:   79.2%
 ccsd(t): done       62 out of       77 progress:   80.5%
 ccsd(t): done       63 out of       77 progress:   81.8%
 ccsd(t): done       64 out of       77 progress:   83.1%
 ccsd(t): done       65 out of       77 progress:   84.4%
 ccsd(t): done       66 out of       77 progress:   85.7%
 ccsd(t): done       67 out of       77 progress:   87.0%
 ccsd(t): done       68 out of       77 progress:   88.3%
 ccsd(t): done       69 out of       77 progress:   89.6%
 ccsd(t): done       70 out of       77 progress:   90.9%
 ccsd(t): done       71 out of       77 progress:   92.2%
 ccsd(t): done       72 out of       77 progress:   93.5%
 ccsd(t): done       73 out of       77 progress:   94.8%
 ccsd(t): done       74 out of       77 progress:   96.1%
 ccsd(t): done       75 out of       77 progress:   97.4%
 ccsd(t): done       76 out of       77 progress:   98.7%
 ccsd(t): done       77 out of       77 progress:  100.0%
 Time for integral evaluation pass     1        1.06
 Time for triples evaluation pass      1        1.03

 pseudo-e(mp4)  -0.59651094496250E-02
 pseudo-e(mp5)   0.41131631907066E-03
        e(t)    -0.55537931305543E-02

 --------------
 CCSD(T) Energy
 --------------
 Reference energy:                     -76.041526413076639

 CCSD corr. energy:                     -0.232087334764781
 T(CCSD) corr. energy:                  -0.005965109449625
 Total CCSD+T(CCSD) energy:            -76.279578857291042

 CCSD corr. energy:                     -0.232087334764781
 (T) corr. energy:                      -0.005553793130554
 Total CCSD(T) energy:                 -76.279167540971969

 routine      calls  cpu(0)   cpu-min  cpu-ave  cpu-max   i/o 
 aoccsd          1     0.02     0.02     0.02     0.02    0.00
 iterdrv         1     0.23     0.22     0.23     0.23    0.00
 pampt          13     0.08     0.08     0.08     0.08    0.00
 t2pm           13     0.17     0.17     0.17     0.17    0.00
 sxy            13     2.52     0.57     1.56     2.52    0.00
 ints       842517     5.78     5.39     5.56     5.78    0.00
 f_write        12     0.00     0.00     0.00     0.01    0.00
 t2eri        1209     0.82     0.80     0.81     0.82    0.00
 idx2         1209    12.02    12.02    13.21    14.28    0.00
 idx34          13     0.01     0.01     0.01     0.01    0.00
 ht2pm          13     0.08     0.08     0.08     0.08    0.00
 itm            13     0.66     0.66     0.66     0.66    0.00
 pdiis          13     0.01     0.01     0.01     0.01    0.00
 r_read         72     0.02     0.02     0.03     0.03    0.00
 triples         1     0.00     0.00     0.00     0.00    0.00
 rdtrpo          1     0.00     0.00     0.00     0.00    0.00
 trpmos          1     1.06     1.06     1.06     1.06    0.00
 trpdrv          1     0.62     0.53     0.60     0.63    0.00
 dovvv        1440     0.31     0.30     0.32     0.36    0.00
 doooo        1440     0.03     0.03     0.04     0.04    0.00
 tengy        1200     0.07     0.06     0.07     0.09    0.00
 Total                24.50    24.50    24.51    24.51    0.00

 Task  times  cpu:       27.0s     wall:       27.0s


                                NWChem Input Module
                                -------------------


 Summary of allocated global arrays
-----------------------------------
  No active global arrays


MA_summarize_allocated_blocks: starting scan ...
MA_summarize_allocated_blocks: scan completed: 0 heap blocks, 0 stack blocks
MA usage statistics:

	allocation statistics:
					      heap	     stack
					      ----	     -----
	current number of blocks	         0	         0
	maximum number of blocks	        18	        42
	current total bytes		         0	         0
	maximum total bytes		   8936432	7731415912
	maximum total K-bytes		      8937	   7731416
	maximum total M-bytes		         9	      7732


                                     CITATION
                                     --------
                Please cite the following reference when publishing
                           results obtained with NWChem:

          E. Apra, E. J. Bylaska, W. A. de Jong, N. Govind, K. Kowalski,
       T. P. Straatsma, M. Valiev, H. J. J. van Dam, Y. Alexeev, J. Anchell,
       V. Anisimov, F. W. Aquino, R. Atta-Fynn, J. Autschbach, N. P. Bauman,
     J. C. Becca, D. E. Bernholdt, K. Bhaskaran-Nair, S. Bogatko, P. Borowski,
         J. Boschen, J. Brabec, A. Bruner, E. Cauet, Y. Chen, G. N. Chuev,
      C. J. Cramer, J. Daily, M. J. O. Deegan, T. H. Dunning Jr., M. Dupuis,
   K. G. Dyall, G. I. Fann, S. A. Fischer, A. Fonari, H. Fruchtl, L. Gagliardi,
      J. Garza, N. Gawande, S. Ghosh, K. Glaesemann, A. W. Gotz, J. Hammond,
       V. Helms, E. D. Hermes, K. Hirao, S. Hirata, M. Jacquelin, L. Jensen,
   B. G. Johnson, H. Jonsson, R. A. Kendall, M. Klemm, R. Kobayashi, V. Konkov,
      S. Krishnamoorthy, M. Krishnan, Z. Lin, R. D. Lins, R. J. Littlefield,
      A. J. Logsdail, K. Lopata, W. Ma, A. V. Marenich, J. Martin del Campo,
   D. Mejia-Rodriguez, J. E. Moore, J. M. Mullin, T. Nakajima, D. R. Nascimento,
    J. A. Nichols, P. J. Nichols, J. Nieplocha, A. Otero-de-la-Roza, B. Palmer,
    A. Panyala, T. Pirojsirikul, B. Peng, R. Peverati, J. Pittner, L. Pollack,
   R. M. Richard, P. Sadayappan, G. C. Schatz, W. A. Shelton, D. W. Silverstein,
   D. M. A. Smith, T. A. Soares, D. Song, M. Swart, H. L. Taylor, G. S. Thomas,
            V. Tipparaju, D. G. Truhlar, K. Tsemekhman, T. Van Voorhis,
      A. Vazquez-Mayagoitia, P. Verma, O. Villa, A. Vishnu, K. D. Vogiatzis,
        D. Wang, J. H. Weare, M. J. Williamson, T. L. Windus, K. Wolinski,
        A. T. Wong, Q. Wu, C. Yang, Q. Yu, M. Zacharias, Z. Zhang, Y. Zhao,
                                and R. J. Harrison
                        "NWChem: Past, present, and future
                         J. Chem. Phys. 152, 184102 (2020)
                               doi:10.1063/5.0004997

                                      AUTHORS
                                      -------
  E. Apra, E. J. Bylaska, N. Govind, K. Kowalski, M. Valiev, D. Mejia-Rodriguez,
       A. Kunitsa, N. P. Bauman, A. Panyala, W. A. de Jong, T. P. Straatsma,
   H. J. J. van Dam, D. Wang, T. L. Windus, J. Hammond, J. Autschbach, A. Woods,
    K. Bhaskaran-Nair, J. Brabec, K. Lopata, S. A. Fischer, S. Krishnamoorthy,
     M. Jacquelin, W. Ma, M. Klemm, O. Villa, Y. Chen, V. Anisimov, F. Aquino,
     S. Hirata, M. T. Hackler, E. Hermes, L. Jensen, J. E. Moore, J. C. Becca,
      V. Konjkov, T. Risthaus, M. Malagoli, A. Marenich, A. Otero-de-la-Roza,
        J. Mullin, P. Nichols, R. Peverati, J. Pittner, Y. Zhao, P.-D. Fan,
        A. Fonari, M. J. Williamson, R. J. Harrison, J. R. Rehr, M. Dupuis,
     D. Silverstein, D. M. A. Smith, J. Nieplocha, V. Tipparaju, M. Krishnan,
     B. E. Van Kuiken, A. Vazquez-Mayagoitia, M. Swart, Q. Wu, T. Van Voorhis,
     A. A. Auer, M. Nooijen, L. D. Crosby, E. Brown, G. Cisneros, G. I. Fann,
   H. Fruchtl, J. Garza, K. Hirao, R. A. Kendall, J. A. Nichols, K. Tsemekhman,
    K. Wolinski, J. Anchell, D. E. Bernholdt, P. Borowski, T. Clark, D. Clerc,
   H. Dachsel, M. J. O. Deegan, K. Dyall, D. Elwood, E. Glendening, M. Gutowski,
   A. C. Hess, J. Jaffe, B. G. Johnson, J. Ju, R. Kobayashi, R. Kutteh, Z. Lin,
   R. Littlefield, X. Long, B. Meng, T. Nakajima, S. Niu, L. Pollack, M. Rosing,
   K. Glaesemann, G. Sandrone, M. Stave, H. Taylor, G. Thomas, J. H. van Lenthe,
                               A. T. Wong, Z. Zhang.

 Total times  cpu:       27.1s     wall:       27.1s
