 argument  1 = H2O_H2O_distance_1.5_2.0_0.25/input_B_AB.txt
                                         
                                         


             Northwest Computational Chemistry Package (NWChem) 7.2.3
             --------------------------------------------------------


                    Environmental Molecular Sciences Laboratory
                       Pacific Northwest National Laboratory
                                Richland, WA 99352

                              Copyright (c) 1994-2022
                       Pacific Northwest National Laboratory
                            Battelle Memorial Institute

             NWChem is an open-source computational chemistry package
                        distributed under the terms of the
                      Educational Community License (ECL) 2.0
             A copy of the license is included with this distribution
                              in the LICENSE.TXT file

                                  ACKNOWLEDGMENT
                                  --------------

            This software and its documentation were developed at the
            EMSL at Pacific Northwest National Laboratory, a multiprogram
            national laboratory, operated for the U.S. Department of Energy
            by Battelle under Contract Number DE-AC05-76RL01830. Support
            for this work was provided by the Department of Energy Office
            of Biological and Environmental Research, Office of Basic
            Energy Sciences, and the Office of Advanced Scientific Computing.


           Job information
           ---------------

    hostname        = visitor-wireless1-147-155-221-104.ameslab.gov
    program         = nwchem
    date            = Wed Jun 11 13:37:16 2025

    compiled        = Thu_Dec_26_16:03:44_2024
    source          = /private/tmp/nwchem-20241226-24280-orrtsi/nwchem-7.2.3
    nwchem branch   = 7.2.3
    nwchem revision = d690e065
    ga revision     = 5.8.0
    use scalapack   = T
    input           = H2O_H2O_distance_1.5_2.0_0.25/input_B_AB.txt
    prefix          = input_B_AB.
    data base       = ./input_B_AB.db
    status          = restart
    nproc           =        1
    time left       =     -1s



           Memory information
           ------------------

    heap     =   26214396 doubles =    200.0 Mbytes
    stack    =   26214401 doubles =    200.0 Mbytes
    global   =   52428800 doubles =    400.0 Mbytes (distinct from heap & stack)
    total    =  104857597 doubles =    800.0 Mbytes
    verify   = yes
    hardfail = no 


           Directory information
           ---------------------

  0 permanent = .
  0 scratch   = .


           Previous task information
           -------------------------

    Theory    = ccsd(t)                         
    Operation = energy                        
    Status    = ok                            
    Qmmm      = F
    Ignore    = F


           Geometries in the database
           --------------------------

       Name                              Natoms  Last Modified
       --------------------------------  ------  ------------------------
    1  geometry                               6  Wed Jun 11 13:36:25 2025  

  The geometry named "geometry" is the default for restart



           Basis sets in the database
           --------------------------

       Name                              Natoms  Last Modified
        --------------------------------  ------  ------------------------
    1  ao basis                               4  Wed Jun 11 13:36:25 2025  

  The basis set named "ao basis" is the default AO basis for restart




                                NWChem Input Module
                                -------------------



 Scaling coordinates for geometry "geometry" by  1.889725989
 (inverse scale =  0.529177249)

 C1  symmetry detected

          ------
          auto-z
          ------
  autoz: The atoms group into disjoint clusters
 cluster   1:    1    2    3
 cluster   2:    4    5    6
 Connecting clusters   1   2 via atoms    3    4 r = 1.55
  autoz: regenerating connections with new bonds
  no constraints, skipping    0.0000000000000000     
  no constraints, skipping    0.0000000000000000     


                             Geometry "geometry" -> ""
                             -------------------------

 Output coordinates in angstroms (scale by  1.889725989 to convert to a.u.)

  No.       Tag          Charge          X              Y              Z
 ---- ---------------- ---------- -------------- -------------- --------------
    1 bqO                  0.0000    -0.56124714    -2.52266548     0.04068578
    2 bqH                  0.0000     0.30766218    -2.94400553     0.01502549
    3 bqH                  0.0000    -0.36789456    -1.58237951    -0.06716730
    4 O                    8.0000    -0.10622619    -0.05189459     0.01335134
    5 H                    1.0000     0.76268313    -0.47323464    -0.01230895
    6 H                    1.0000     0.08712640     0.88839137    -0.09450174

      Atomic Mass 
      ----------- 

      O                 15.994910
      H                  1.007825


 Effective nuclear repulsion energy (a.u.)       9.1123991190

            Nuclear Dipole moment (a.u.) 
            ----------------------------
        X                 Y               Z
 ---------------- ---------------- ----------------
    -0.0000000000     0.0000000000    -0.0000000000



                                Z-matrix (autoz)
                                -------- 

 Units are Angstrom for bonds and degrees for angles

      Type          Name      I     J     K     L     M      Value
      ----------- --------  ----- ----- ----- ----- ----- ----------
    1 Stretch                  1     2                       0.96602
    2 Stretch                  1     3                       0.96600
    3 Stretch                  3     4                       1.55478
    4 Stretch                  4     5                       0.96602
    5 Stretch                  4     6                       0.96600
    6 Bend                     1     3     4               170.42760
    7 Bend                     2     1     3               103.97798
    8 Bend                     3     4     5                73.77911
    9 Bend                     3     4     6               170.42760
   10 Bend                     5     4     6               103.97798
   11 Torsion                  1     3     4     5         102.25866
   12 Torsion                  1     3     4     6        -180.00000
   13 Torsion                  2     1     3     4        -104.77591


            XYZ format geometry
            -------------------
     6
 geometry
 bqO                  -0.56124714    -2.52266548     0.04068578
 bqH                   0.30766218    -2.94400553     0.01502549
 bqH                  -0.36789456    -1.58237951    -0.06716730
 O                    -0.10622619    -0.05189459     0.01335134
 H                     0.76268313    -0.47323464    -0.01230895
 H                     0.08712640     0.88839137    -0.09450174

 ==============================================================================
                                internuclear distances
 ------------------------------------------------------------------------------
       center one      |      center two      | atomic units |  angstroms
 ------------------------------------------------------------------------------
    2 bqH              |   1 bqO              |     1.82551  |     0.96602
    3 bqH              |   1 bqO              |     1.82547  |     0.96600
    3 bqH              |   2 bqH              |     2.87658  |     1.52222
    4 O                |   1 bqO              |     4.74788  |     2.51247
    4 O                |   2 bqH              |     5.52098  |     2.92158
    4 O                |   3 bqH              |     2.93811  |     1.55478
    5 H                |   1 bqO              |     4.61177  |     2.44044
    5 H                |   2 bqH              |     4.74788  |     2.51247
    5 H                |   3 bqH              |     2.99473  |     1.58475
    5 H                |   4 O                |     1.82551  |     0.96602
    6 H                |   3 bqH              |     4.74788  |     2.51247
    6 H                |   4 O                |     1.82547  |     0.96600
 ------------------------------------------------------------------------------
                         number of included internuclear distances:         12
 ==============================================================================



 ==============================================================================
                                 internuclear angles
 ------------------------------------------------------------------------------
        center 1       |       center 2       |       center 3       |  degrees
 ------------------------------------------------------------------------------
    2 bqH              |   1 bqO              |   3 bqH              |   103.98
    2 bqH              |   1 bqO              |   4 O                |   105.41
    2 bqH              |   1 bqO              |   5 H                |    82.98
    1 bqO              |   3 bqH              |   4 O                |   170.43
    1 bqO              |   3 bqH              |   5 H                |   145.10
    1 bqO              |   5 H                |   4 O                |    82.98
    2 bqH              |   1 bqO              |   3 bqH              |   103.98
    2 bqH              |   1 bqO              |   4 O                |   105.41
    2 bqH              |   1 bqO              |   5 H                |    82.98
    2 bqH              |   3 bqH              |   4 O                |   143.42
    2 bqH              |   3 bqH              |   5 H                |   107.91
    2 bqH              |   5 H                |   4 O                |   105.41
    3 bqH              |   1 bqO              |   2 bqH              |   103.98
    1 bqO              |   3 bqH              |   4 O                |   170.43
    1 bqO              |   3 bqH              |   5 H                |   145.10
    1 bqO              |   3 bqH              |   6 H                |   174.09
    2 bqH              |   3 bqH              |   4 O                |   143.42
    2 bqH              |   3 bqH              |   5 H                |   107.91
    2 bqH              |   3 bqH              |   6 H                |   143.12
    3 bqH              |   4 O                |   5 H                |    73.78
    3 bqH              |   4 O                |   6 H                |   170.43
    5 H                |   3 bqH              |   6 H                |    35.20
    4 O                |   1 bqO              |   2 bqH              |   105.41
    4 O                |   3 bqH              |   1 bqO              |   170.43
    4 O                |   5 H                |   1 bqO              |    82.98
    1 bqO              |   4 O                |   6 H                |   174.09
    4 O                |   3 bqH              |   2 bqH              |   143.42
    4 O                |   5 H                |   2 bqH              |   105.41
    2 bqH              |   4 O                |   6 H                |   159.27
    3 bqH              |   4 O                |   5 H                |    73.78
    3 bqH              |   4 O                |   6 H                |   170.43
    5 H                |   4 O                |   6 H                |   103.98
    5 H                |   1 bqO              |   2 bqH              |    82.98
    5 H                |   3 bqH              |   1 bqO              |   145.10
    1 bqO              |   5 H                |   4 O                |    82.98
    5 H                |   3 bqH              |   2 bqH              |   107.91
    2 bqH              |   5 H                |   4 O                |   105.41
    5 H                |   4 O                |   3 bqH              |    73.78
    6 H                |   4 O                |   3 bqH              |   170.43
 ------------------------------------------------------------------------------
                            number of included internuclear angles:         39
 ==============================================================================



  library name resolved from: .nwchemrc
  library file name is: </opt/homebrew/Cellar/nwchem/7.2.3_1/share/nwchem/libraries/>
  
                      Basis "ao basis" -> "" (spherical)
                      -----
  bqO
  ---
            Exponent  Coefficients 
       -------------- ---------------------------------------------------------
  1 S  1.17200000E+04  0.000710
  1 S  1.75900000E+03  0.005470
  1 S  4.00800000E+02  0.027837
  1 S  1.13700000E+02  0.104800
  1 S  3.70300000E+01  0.283062
  1 S  1.32700000E+01  0.448719
  1 S  5.02500000E+00  0.270952
  1 S  1.01300000E+00  0.015458

  2 S  1.17200000E+04 -0.000160
  2 S  1.75900000E+03 -0.001263
  2 S  4.00800000E+02 -0.006267
  2 S  1.13700000E+02 -0.025716
  2 S  3.70300000E+01 -0.070924
  2 S  1.32700000E+01 -0.165411
  2 S  5.02500000E+00 -0.116955
  2 S  1.01300000E+00  0.557368

  3 S  3.02300000E-01  1.000000

  4 S  7.89600000E-02  1.000000

  5 P  1.77000000E+01  0.043018
  5 P  3.85400000E+00  0.228913
  5 P  1.04600000E+00  0.508728

  6 P  2.75300000E-01  1.000000

  7 P  6.85600000E-02  1.000000

  8 D  1.18500000E+00  1.000000

  9 D  3.32000000E-01  1.000000

  bqH
  ---
            Exponent  Coefficients 
       -------------- ---------------------------------------------------------
  1 S  1.30100000E+01  0.019685
  1 S  1.96200000E+00  0.137977
  1 S  4.44600000E-01  0.478148

  2 S  1.22000000E-01  1.000000

  3 S  2.97400000E-02  1.000000

  4 P  7.27000000E-01  1.000000

  5 P  1.41000000E-01  1.000000

  O (Oxygen)
  ----------
            Exponent  Coefficients 
       -------------- ---------------------------------------------------------
  1 S  1.17200000E+04  0.000710
  1 S  1.75900000E+03  0.005470
  1 S  4.00800000E+02  0.027837
  1 S  1.13700000E+02  0.104800
  1 S  3.70300000E+01  0.283062
  1 S  1.32700000E+01  0.448719
  1 S  5.02500000E+00  0.270952
  1 S  1.01300000E+00  0.015458

  2 S  1.17200000E+04 -0.000160
  2 S  1.75900000E+03 -0.001263
  2 S  4.00800000E+02 -0.006267
  2 S  1.13700000E+02 -0.025716
  2 S  3.70300000E+01 -0.070924
  2 S  1.32700000E+01 -0.165411
  2 S  5.02500000E+00 -0.116955
  2 S  1.01300000E+00  0.557368

  3 S  3.02300000E-01  1.000000

  4 S  7.89600000E-02  1.000000

  5 P  1.77000000E+01  0.043018
  5 P  3.85400000E+00  0.228913
  5 P  1.04600000E+00  0.508728

  6 P  2.75300000E-01  1.000000

  7 P  6.85600000E-02  1.000000

  8 D  1.18500000E+00  1.000000

  9 D  3.32000000E-01  1.000000

  H (Hydrogen)
  ------------
            Exponent  Coefficients 
       -------------- ---------------------------------------------------------
  1 S  1.30100000E+01  0.019685
  1 S  1.96200000E+00  0.137977
  1 S  4.44600000E-01  0.478148

  2 S  1.22000000E-01  1.000000

  3 S  2.97400000E-02  1.000000

  4 P  7.27000000E-01  1.000000

  5 P  1.41000000E-01  1.000000



 Summary of "ao basis" -> "" (spherical)
 ------------------------------------------------------------------------------
       Tag                 Description            Shells   Functions and Types
 ---------------- ------------------------------  ------  ---------------------
 bqO                      aug-cc-pvdz                9       23   4s3p2d
 bqH                      aug-cc-pvdz                5        9   3s2p
 O                        aug-cc-pvdz                9       23   4s3p2d
 H                        aug-cc-pvdz                5        9   3s2p


                                 NWChem SCF Module
                                 -----------------



  ao basis        = "ao basis"
  functions       =    82
  atoms           =     6
  closed shells   =     5
  open shells     =     0
  charge          =   0.00
  wavefunction    = RHF 
  input vectors   = ./input_B_AB.movecs
  output vectors  = ./input_B_AB.movecs
  use symmetry    = F
  symmetry adapt  = F


 Summary of "ao basis" -> "ao basis" (spherical)
 ------------------------------------------------------------------------------
       Tag                 Description            Shells   Functions and Types
 ---------------- ------------------------------  ------  ---------------------
 bqO                      aug-cc-pvdz                9       23   4s3p2d
 bqH                      aug-cc-pvdz                5        9   3s2p
 O                        aug-cc-pvdz                9       23   4s3p2d
 H                        aug-cc-pvdz                5        9   3s2p



 Forming initial guess at       0.0s


 Loading old vectors from job with title :




 Starting SCF solution at       0.0s



 ----------------------------------------------
         Quadratically convergent ROHF

 Convergence threshold     :          1.000E-06
 Maximum no. of iterations :           30
 Final Fock-matrix accuracy:          1.000E-08
 ----------------------------------------------


 Integral file          = ./input_B_AB.aoints.0
 Record size in doubles =  65536        No. of integs per rec  =  43688
 Max. records in memory =    184        Max. records in file   =   4295
 No. of bits per label  =      8        No. of bits per value  =     64


 #quartets = 2.717D+05 #integrals = 5.697D+06 #direct =  0.0% #cached =100.0%


              iter       energy          gnorm     gmax       time
             ----- ------------------- --------- --------- --------
                 1      -74.4824046947  2.85D+00  6.08D-01      0.4
                 2      -75.5395777799  1.92D+00  1.05D+00      0.5
                 3      -75.9324559687  1.14D+00  3.11D-01      0.6
                 4      -76.0294713622  4.47D-01  1.06D-01      0.6
                 5      -76.0397020426  1.64D-01  5.26D-02      0.7
                 6      -76.0413401244  8.77D-03  2.56D-03      0.8
                 7      -76.0413550761  6.54D-05  1.72D-05      1.0
                 8      -76.0413550767  8.30D-08  1.64D-08      1.2


       Final RHF  results 
       ------------------ 

         Total SCF energy =    -76.041355076651
      One-electron energy =   -122.830941457030
      Two-electron energy =     37.677187261423
 Nuclear repulsion energy =      9.112399118956

        Time for solution =      1.2s


             Final eigenvalues
             -----------------

              1      
    1  -20.5790
    2   -1.3525
    3   -0.7134
    4   -0.5848
    5   -0.5086
    6    0.0303
    7    0.0506
    8    0.0643
    9    0.0858
   10    0.1562
   11    0.1682
   12    0.1816
   13    0.1982
   14    0.2206
   15    0.2333

                       ROHF Final Molecular Orbital Analysis
                       -------------------------------------

 Vector    2  Occ=2.000000D+00  E=-1.352499D+00
              MO Center=  4.4D-02,  2.1D-02, -5.5D-03, r^2= 5.0D-01
   Bfn.  Coefficient  Atom+Function         Bfn.  Coefficient  Atom+Function  
  ----- ------------  ---------------      ----- ------------  ---------------
    43      0.446900  4 O  s                 44      0.395559  4 O  s          
    74      0.206722  6 H  s                 65      0.205046  5 H  s          

 Vector    3  Occ=2.000000D+00  E=-7.133526D-01
              MO Center=  8.5D-02,  4.1D-02, -1.1D-02, r^2= 7.7D-01
   Bfn.  Coefficient  Atom+Function         Bfn.  Coefficient  Atom+Function  
  ----- ------------  ---------------      ----- ------------  ---------------
    47      0.445948  4 O  py                65     -0.348283  5 H  s          
    74      0.349433  6 H  s                 46     -0.221426  4 O  px         
    50      0.182069  4 O  py         

 Vector    4  Occ=2.000000D+00  E=-5.848087D-01
              MO Center= -1.4D-01, -6.7D-02,  1.7D-02, r^2= 7.3D-01
   Bfn.  Coefficient  Atom+Function         Bfn.  Coefficient  Atom+Function  
  ----- ------------  ---------------      ----- ------------  ---------------
    46      0.488712  4 O  px                44     -0.308566  4 O  s          
    49      0.294334  4 O  px                47      0.238055  4 O  py         
    74      0.214707  6 H  s                 65      0.212874  5 H  s          
    43     -0.152020  4 O  s          

 Vector    5  Occ=2.000000D+00  E=-5.086092D-01
              MO Center= -7.1D-02, -3.5D-02,  8.9D-03, r^2= 6.8D-01
   Bfn.  Coefficient  Atom+Function         Bfn.  Coefficient  Atom+Function  
  ----- ------------  ---------------      ----- ------------  ---------------
    48      0.623741  4 O  pz                51      0.447820  4 O  pz         

 Vector    6  Occ=0.000000D+00  E= 3.026617D-02
              MO Center=  1.1D+00, -3.9D-01, -4.1D-02, r^2= 1.3D+01
   Bfn.  Coefficient  Atom+Function         Bfn.  Coefficient  Atom+Function  
  ----- ------------  ---------------      ----- ------------  ---------------
    45     -1.169017  4 O  s                 35     -1.120709  3 bq s          
    26      1.097617  2 bq s                 76      1.053293  6 H  s          
    67      0.793395  5 H  s                  4     -0.680848  1 bq s          
    75      0.638793  6 H  s                 53     -0.453582  4 O  py         
    25      0.380081  2 bq s                 11     -0.280626  1 bq px         

 Vector    7  Occ=0.000000D+00  E= 5.061099D-02
              MO Center=  4.4D-01, -9.5D-01, -7.5D-02, r^2= 1.9D+01
   Bfn.  Coefficient  Atom+Function         Bfn.  Coefficient  Atom+Function  
  ----- ------------  ---------------      ----- ------------  ---------------
    76      1.927940  6 H  s                 26     -1.397494  2 bq s          
    53     -0.814085  4 O  py                45     -0.775588  4 O  s          
    75      0.749027  6 H  s                  4      0.662741  1 bq s          
    67     -0.626266  5 H  s                 25     -0.393684  2 bq s          
    12     -0.276429  1 bq py                11      0.224580  1 bq px         

 Vector    8  Occ=0.000000D+00  E= 6.434198D-02
              MO Center= -3.1D-02, -1.1D+00, -1.0D-01, r^2= 1.7D+01
   Bfn.  Coefficient  Atom+Function         Bfn.  Coefficient  Atom+Function  
  ----- ------------  ---------------      ----- ------------  ---------------
    67      4.224438  5 H  s                 35     -3.186240  3 bq s          
    76     -1.810365  6 H  s                  4      1.188027  1 bq s          
    52     -0.612470  4 O  px                66      0.377745  5 H  s          
    34     -0.361366  3 bq s                 45     -0.337751  4 O  s          
    25     -0.260190  2 bq s                 12      0.224843  1 bq py         

 Vector    9  Occ=0.000000D+00  E= 8.582279D-02
              MO Center= -1.2D-01, -1.6D+00, -1.4D-01, r^2= 2.0D+01
   Bfn.  Coefficient  Atom+Function         Bfn.  Coefficient  Atom+Function  
  ----- ------------  ---------------      ----- ------------  ---------------
    35      4.741709  3 bq s                 26     -3.616653  2 bq s          
    76     -2.582110  6 H  s                 67      1.840296  5 H  s          
    45     -1.223941  4 O  s                 34      0.960920  3 bq s          
    53      0.842864  4 O  py                12     -0.638712  1 bq py         
    66      0.534766  5 H  s                  4     -0.493122  1 bq s          

 Vector   10  Occ=0.000000D+00  E= 1.562043D-01
              MO Center= -5.8D-01, -2.0D+00,  6.0D-02, r^2= 7.6D+00
   Bfn.  Coefficient  Atom+Function         Bfn.  Coefficient  Atom+Function  
  ----- ------------  ---------------      ----- ------------  ---------------
    13      1.099309  1 bq pz                54      0.597140  4 O  pz         
     4     -0.587799  1 bq s                 45     -0.527119  4 O  s          
    41     -0.466075  3 bq pz                25      0.332193  2 bq s          
    75      0.321733  6 H  s                 67      0.295816  5 H  s          
    11     -0.273296  1 bq px                66      0.274515  5 H  s          

 Vector   11  Occ=0.000000D+00  E= 1.682325D-01
              MO Center=  3.2D-01, -1.8D+00,  4.2D-02, r^2= 1.0D+01
   Bfn.  Coefficient  Atom+Function         Bfn.  Coefficient  Atom+Function  
  ----- ------------  ---------------      ----- ------------  ---------------
     4      4.070626  1 bq s                 45      2.171759  4 O  s          
    25     -1.604457  2 bq s                 11      1.233821  1 bq px         
    34     -1.114950  3 bq s                 67     -1.003887  5 H  s          
    75     -0.946244  6 H  s                 26     -0.883950  2 bq s          
    53      0.700094  4 O  py                66     -0.597945  5 H  s          

 Vector   12  Occ=0.000000D+00  E= 1.815950D-01
              MO Center= -8.1D-01, -2.2D+00,  3.9D-02, r^2= 1.0D+01
   Bfn.  Coefficient  Atom+Function         Bfn.  Coefficient  Atom+Function  
  ----- ------------  ---------------      ----- ------------  ---------------
    66      1.744580  5 H  s                 35      1.719009  3 bq s          
    53      1.682670  4 O  py                12      1.412380  1 bq py         
    11      1.172367  1 bq px                67     -0.964698  5 H  s          
    75     -0.943009  6 H  s                 45     -0.922705  4 O  s          
    34     -0.749639  3 bq s                 76     -0.628412  6 H  s          

 Vector   13  Occ=0.000000D+00  E= 1.981639D-01
              MO Center=  2.9D-01,  4.9D-02, -4.0D-02, r^2= 1.3D+01
   Bfn.  Coefficient  Atom+Function         Bfn.  Coefficient  Atom+Function  
  ----- ------------  ---------------      ----- ------------  ---------------
    45      3.355068  4 O  s                 75     -2.512255  6 H  s          
    53      2.475755  4 O  py                76     -1.619759  6 H  s          
    26      1.356302  2 bq s                 25      1.335699  2 bq s          
    52      1.137027  4 O  px                11     -1.068873  1 bq px         
    12      1.054670  1 bq py                66     -0.985285  5 H  s          

 Vector   14  Occ=0.000000D+00  E= 2.206226D-01
              MO Center= -4.1D-01, -6.0D-01, -1.8D-01, r^2= 8.9D+00
   Bfn.  Coefficient  Atom+Function         Bfn.  Coefficient  Atom+Function  
  ----- ------------  ---------------      ----- ------------  ---------------
    54      1.496400  4 O  pz                 4      1.220341  1 bq s          
    45     -1.169052  4 O  s                 13     -0.994357  1 bq pz         
    53      0.679301  4 O  py                40      0.658992  3 bq py         
    35     -0.586810  3 bq s                 12      0.573627  1 bq py         
    67      0.504959  5 H  s                 34     -0.388797  3 bq s          

 Vector   15  Occ=0.000000D+00  E= 2.332777D-01
              MO Center= -5.3D-01, -8.1D-01,  8.1D-02, r^2= 1.1D+01
   Bfn.  Coefficient  Atom+Function         Bfn.  Coefficient  Atom+Function  
  ----- ------------  ---------------      ----- ------------  ---------------
    35      3.727119  3 bq s                 67     -3.346249  5 H  s          
     4     -2.556005  1 bq s                 66     -2.536493  5 H  s          
    52      2.182234  4 O  px                45      1.777651  4 O  s          
    76      1.282346  6 H  s                 34      1.159613  3 bq s          
    12     -1.108007  1 bq py                53     -1.058298  4 O  py         

 Vector   16  Occ=0.000000D+00  E= 2.500706D-01
              MO Center= -6.8D-01, -1.5D+00,  7.8D-02, r^2= 1.3D+01
   Bfn.  Coefficient  Atom+Function         Bfn.  Coefficient  Atom+Function  
  ----- ------------  ---------------      ----- ------------  ---------------
    34     -2.671453  3 bq s                 26      2.655103  2 bq s          
    12      2.563692  1 bq py                35     -2.510463  3 bq s          
    67     -2.359777  5 H  s                 76      2.362987  6 H  s          
    66     -1.871759  5 H  s                 25      1.856540  2 bq s          
    53     -1.652813  4 O  py                75      1.493320  6 H  s          

 Vector   17  Occ=0.000000D+00  E= 2.796863D-01
              MO Center=  2.8D-01, -6.8D-01,  1.4D-02, r^2= 7.2D+00
   Bfn.  Coefficient  Atom+Function         Bfn.  Coefficient  Atom+Function  
  ----- ------------  ---------------      ----- ------------  ---------------
     4      2.473605  1 bq s                 45     -2.430716  4 O  s          
    35      1.831475  3 bq s                 53      1.717243  4 O  py         
    12      1.310466  1 bq py                40      1.061564  3 bq py         
    52      0.973574  4 O  px                76     -0.898737  6 H  s          
    11      0.822404  1 bq px                26     -0.776996  2 bq s          

 Vector   18  Occ=0.000000D+00  E= 3.285410D-01
              MO Center= -2.4D-01, -7.8D-01,  9.8D-02, r^2= 6.7D+00
   Bfn.  Coefficient  Atom+Function         Bfn.  Coefficient  Atom+Function  
  ----- ------------  ---------------      ----- ------------  ---------------
    45      6.139116  4 O  s                 75     -2.091924  6 H  s          
    66     -1.961308  5 H  s                 25     -1.948470  2 bq s          
    40     -1.638663  3 bq py                35     -1.407927  3 bq s          
    53     -1.299866  4 O  py                11      0.571975  1 bq px         
    26      0.563660  2 bq s                 12     -0.538716  1 bq py         

 Vector   19  Occ=0.000000D+00  E= 3.799204D-01
              MO Center=  4.5D-01, -9.8D-01,  7.8D-02, r^2= 6.8D+00
   Bfn.  Coefficient  Atom+Function         Bfn.  Coefficient  Atom+Function  
  ----- ------------  ---------------      ----- ------------  ---------------
    53      1.907430  4 O  py                25      1.045127  2 bq s          
    12      1.038942  1 bq py                75     -0.888044  6 H  s          
    34      0.776246  3 bq s                 73     -0.769293  5 H  pz         
    66     -0.599583  5 H  s                 81     -0.591383  6 H  py         
    80      0.520961  6 H  px                13      0.496574  1 bq pz         

 Vector   20  Occ=0.000000D+00  E= 3.878208D-01
              MO Center=  4.7D-01, -1.3D+00, -3.2D-02, r^2= 6.1D+00
   Bfn.  Coefficient  Atom+Function         Bfn.  Coefficient  Atom+Function  
  ----- ------------  ---------------      ----- ------------  ---------------
    25      1.311054  2 bq s                 73      0.954977  5 H  pz         
    66     -0.812512  5 H  s                 34      0.783212  3 bq s          
    53      0.777102  4 O  py                 4     -0.769926  1 bq s          
    12      0.603021  1 bq py                71      0.569258  5 H  px         
    32      0.566252  2 bq pz                80      0.503196  6 H  px         

 Vector   21  Occ=0.000000D+00  E= 3.979417D-01
              MO Center= -1.8D-01, -5.0D-01,  2.5D-01, r^2= 8.4D+00
   Bfn.  Coefficient  Atom+Function         Bfn.  Coefficient  Atom+Function  
  ----- ------------  ---------------      ----- ------------  ---------------
     4      6.310261  1 bq s                 53      4.175090  4 O  py         
    75     -2.975084  6 H  s                 12      2.086730  1 bq py         
    34     -1.951254  3 bq s                 40      1.643996  3 bq py         
    25     -1.483127  2 bq s                 11      1.065939  1 bq px         
    52      0.896081  4 O  px                76     -0.797731  6 H  s          

 Vector   22  Occ=0.000000D+00  E= 4.202015D-01
              MO Center=  2.4D-01, -1.1D+00, -5.2D-02, r^2= 7.0D+00
   Bfn.  Coefficient  Atom+Function         Bfn.  Coefficient  Atom+Function  
  ----- ------------  ---------------      ----- ------------  ---------------
     4      4.530222  1 bq s                 45     -4.064665  4 O  s          
    25     -2.180251  2 bq s                 11      1.631251  1 bq px         
    40      1.601929  3 bq py                75      1.344558  6 H  s          
    52     -1.110954  4 O  px                71      0.974360  5 H  px         
    72      0.916181  5 H  py                12      0.741069  1 bq py         

 Vector   23  Occ=0.000000D+00  E= 4.282360D-01
              MO Center= -2.5D-02, -2.9D-01, -2.5D-01, r^2= 7.1D+00
   Bfn.  Coefficient  Atom+Function         Bfn.  Coefficient  Atom+Function  
  ----- ------------  ---------------      ----- ------------  ---------------
    75      2.449023  6 H  s                 45     -2.144408  4 O  s          
    53     -2.035590  4 O  py                 4     -1.554598  1 bq s          
    34      1.456601  3 bq s                 52     -1.248277  4 O  px         
    12     -1.110869  1 bq py                82      1.062065  6 H  pz         
    11      0.613404  1 bq px                25     -0.611171  2 bq s          

 Vector   24  Occ=0.000000D+00  E= 4.733792D-01
              MO Center= -1.7D-01, -2.2D+00, -3.5D-02, r^2= 6.4D+00
   Bfn.  Coefficient  Atom+Function         Bfn.  Coefficient  Atom+Function  
  ----- ------------  ---------------      ----- ------------  ---------------
     4      5.057527  1 bq s                 34     -3.405235  3 bq s          
    25     -2.927399  2 bq s                 53     -1.797377  4 O  py         
    35     -1.700866  3 bq s                 30      1.434752  2 bq px         
    45      1.391230  4 O  s                 66     -1.052882  5 H  s          
    75      0.967441  6 H  s                  3      0.946841  1 bq s          

 Vector   25  Occ=0.000000D+00  E= 4.794372D-01
              MO Center=  2.9D-01, -2.0D+00,  2.1D-02, r^2= 5.9D+00
   Bfn.  Coefficient  Atom+Function         Bfn.  Coefficient  Atom+Function  
  ----- ------------  ---------------      ----- ------------  ---------------
    32      1.321956  2 bq pz                13     -1.149762  1 bq pz         
    73     -1.066571  5 H  pz                54      0.703964  4 O  pz         
    41      0.699931  3 bq pz                53      0.629517  4 O  py         
    66      0.484878  5 H  s                  4     -0.458234  1 bq s          
    75     -0.424756  6 H  s                 25      0.293273  2 bq s          

 Vector   26  Occ=0.000000D+00  E= 5.144551D-01
              MO Center=  1.3D-01, -1.3D+00, -3.5D-02, r^2= 8.5D+00
   Bfn.  Coefficient  Atom+Function         Bfn.  Coefficient  Atom+Function  
  ----- ------------  ---------------      ----- ------------  ---------------
     4      2.104679  1 bq s                 53      1.787853  4 O  py         
    31      1.503322  2 bq py                80      1.431112  6 H  px         
    12     -1.152771  1 bq py                25     -1.089560  2 bq s          
    52     -1.020224  4 O  px                72     -0.869878  5 H  py         
    81     -0.872701  6 H  py                67      0.852056  5 H  s          


 center of mass
 --------------
 x =  -0.08841031 y =  -0.04319101 z =   0.01111210

 moments of inertia (a.u.)
 ------------------
           3.807350031046           0.774313885447           0.126735117457
           0.774313885447           2.665207421333           0.312120189076
           0.126735117457           0.312120189076           6.391268460004

  Mulliken analysis of the total density
  --------------------------------------

    Atom       Charge   Shell Charges
 -----------   ------   -------------------------------------------------------
    1 X    0    -0.02  -0.00 -0.00 -0.00 -0.01 -0.00  0.00 -0.01  0.00  0.00
    2 X    0     0.00  -0.00 -0.00  0.00 -0.00 -0.00
    3 X    0    -0.09  -0.00 -0.02 -0.01 -0.00 -0.06
    4 O    8     8.43   2.00  0.84  0.84  0.13  2.81  1.65  0.16  0.01 -0.02
    5 H    1     0.87   0.72  0.03 -0.01  0.08  0.04
    6 H    1     0.81   0.73  0.00 -0.01  0.08  0.00

       Multipole analysis of the density wrt the origin
       ------------------------------------------------

     L   x y z        total         open         nuclear
     -   - - -        -----         ----         -------
     0   0 0 0     -0.000000      0.000000     10.000000

     1   1 0 0      0.705949      0.000000     -0.000000
     1   0 1 0      0.343123      0.000000      0.000000
     1   0 0 1     -0.088318      0.000000     -0.000000

     2   2 0 0     -4.369959      0.000000      2.426712
     2   1 1 0     -0.588774      0.000000     -0.855003
     2   1 0 1     -0.041762      0.000000     -0.103445
     2   0 2 0     -3.475906      0.000000      3.695104
     2   0 1 1     -0.170747      0.000000     -0.298800
     2   0 0 2     -5.641352      0.000000      0.037525


 Parallel integral file used     131 records with       0 large values



                   Four-Index Transformation
                   -------------------------
          Number of basis functions:             82
          Number of shells:                      38
          Number of occupied orbitals:            5
          Number of occ. correlated orbitals:     5
          Block length:                          16
          Superscript MO index range:      1 -    5
          Subscript MO index range:        1 -   82
          MO coefficients read from:  ./input_B_AB.movecs      
          Number of operator matrices in core:   30
          Half-transformed integrals produced

     Pass:    1     Index range:    1  -    5     Time:      0.84
 ------------------------------------------
 MP2 Energy (coupled cluster initial guess)
 ------------------------------------------
 Reference energy:            -76.041355076650959
 MP2 Corr. energy:             -0.223657237313696
 Total MP2 energy:            -76.265012313964661


 ****************************************************************************
              the segmented parallel ccsd program:    1 nodes
 ****************************************************************************




 level of theory    ccsd(t)
 number of core         0
 number of occupied     5
 number of virtual     77
 number of deleted      0
 total functions       82
 number of shells      38
 basis label          566



   ***** ccsd parameters *****
   iprt   =     0
   convi  =  0.100E-05
   maxit  =    20
   mxvec  =     5
 memory             52418948
  Using  1 OpenMP thread(s) in CCSD
  Restarting from old vector in ./input_B_AB.t2


-------------------------------------------------------------------------
 iter     correlation     delta       rms       T2     Non-T2      Main
             energy      energy      error      ampl     ampl      Block
                                                time     time      time
-------------------------------------------------------------------------
   1     -0.2247742708 -2.248D-01  4.032D-01     2.49     0.00     2.45
   2     -0.2256564168 -8.821D-04  9.235D-02     0.31     0.00     0.27
   3     -0.2298658344 -4.209D-03  1.033D-02     0.29     0.00     0.25
   4     -0.2305796332 -7.138D-04  1.327D-02     0.29     0.00     0.25
   5     -0.2309369515 -3.573D-04  3.496D-03     0.29     0.00     0.25
   6     -0.2310670764 -1.301D-04  1.031D-03     0.29     0.00     0.25
   7     -0.2310707869 -3.710D-06  3.529D-04     0.30     0.00     0.26
   8     -0.2310701048  6.821D-07  6.086D-05     0.29     0.00     0.25
   9     -0.2310694803  6.245D-07  2.012D-05     0.29     0.00     0.25
  10     -0.2310679640  1.516D-06  1.010D-05     0.30     0.00     0.27
  11     -0.2310680482 -8.425D-08  4.081D-06     0.29     0.00     0.25
  12     -0.2310680454  2.887D-09  5.139D-06     0.29     0.00     0.25
  13     -0.2310681179 -7.258D-08  1.929D-06     0.31     0.00     0.27
  14     -0.2310681448 -2.682D-08  1.055D-06     0.29     0.00     0.25
  15     -0.2310681528 -8.085D-09  1.369D-07     0.29     0.00     0.25
                  *************converged*************
-------------------------------------------------------------------------

 -----------
 CCSD Energy
 -----------
 Reference energy:             -76.041355076650959
 CCSD corr. energy:             -0.231068152842437
 Total CCSD energy:            -76.272423229493398


 --------------------------------
 Spin Component Scaled (SCS) CCSD
 --------------------------------
 Same spin contribution:                 -0.050392008872620
 Same spin scaling factor:                1.130000000000000
 Opposite spin contribution:             -0.180676143969818
 Opposite spin scaling fact.:             1.270000000000000
 SCS-CCSD correlation energy:            -0.286401672867729
 Total SCS-CCSD energy:                 -76.327756749518684
 memory             52418948


*********triples calculation*********

nkpass=    1; nvpass=    1; memdrv=         170401; memtrn=         942207; memavail=       52418548
 memory available/node                       52418548
 total number of virtual orbitals        77
 number of virtuals per integral pass    77
 number of integral evaluations           1
 number of occupied per triples pass      5
 number of triples passes                 1

 commencing integral evaluation        1 at           8.69
  symmetry use  F
task         2 out of       741 done   0%  at       0.0 secs
task        38 out of       741 done   5%  at       0.2 secs
task        75 out of       741 done  10%  at       0.3 secs
task       112 out of       741 done  15%  at       0.5 secs
task       149 out of       741 done  20%  at       0.6 secs
task       186 out of       741 done  25%  at       0.7 secs
task       223 out of       741 done  30%  at       0.8 secs
task       260 out of       741 done  35%  at       0.9 secs
task       297 out of       741 done  40%  at       1.0 secs
task       334 out of       741 done  45%  at       1.1 secs
task       371 out of       741 done  50%  at       1.2 secs
task       408 out of       741 done  55%  at       1.2 secs
task       445 out of       741 done  60%  at       1.3 secs
task       482 out of       741 done  65%  at       1.3 secs
task       519 out of       741 done  70%  at       1.4 secs
task       556 out of       741 done  75%  at       1.4 secs
task       593 out of       741 done  80%  at       1.5 secs
task       630 out of       741 done  85%  at       1.5 secs
task       667 out of       741 done  90%  at       1.6 secs
task       704 out of       741 done  95%  at       1.6 secs
task       741 out of       741 done 100%  at       1.7 secs
 commencing triples evaluation - blocking       1
 ccsd(t): done        1 out of       77 progress:    1.3%
 ccsd(t): done        2 out of       77 progress:    2.6%
 ccsd(t): done        3 out of       77 progress:    3.9%
 ccsd(t): done        4 out of       77 progress:    5.2%
 ccsd(t): done        5 out of       77 progress:    6.5%
 ccsd(t): done        6 out of       77 progress:    7.8%
 ccsd(t): done        7 out of       77 progress:    9.1%
 ccsd(t): done        8 out of       77 progress:   10.4%
 ccsd(t): done        9 out of       77 progress:   11.7%
 ccsd(t): done       10 out of       77 progress:   13.0%
 ccsd(t): done       11 out of       77 progress:   14.3%
 ccsd(t): done       12 out of       77 progress:   15.6%
 ccsd(t): done       13 out of       77 progress:   16.9%
 ccsd(t): done       14 out of       77 progress:   18.2%
 ccsd(t): done       15 out of       77 progress:   19.5%
 ccsd(t): done       16 out of       77 progress:   20.8%
 ccsd(t): done       17 out of       77 progress:   22.1%
 ccsd(t): done       18 out of       77 progress:   23.4%
 ccsd(t): done       19 out of       77 progress:   24.7%
 ccsd(t): done       20 out of       77 progress:   26.0%
 ccsd(t): done       21 out of       77 progress:   27.3%
 ccsd(t): done       22 out of       77 progress:   28.6%
 ccsd(t): done       23 out of       77 progress:   29.9%
 ccsd(t): done       24 out of       77 progress:   31.2%
 ccsd(t): done       25 out of       77 progress:   32.5%
 ccsd(t): done       26 out of       77 progress:   33.8%
 ccsd(t): done       27 out of       77 progress:   35.1%
 ccsd(t): done       28 out of       77 progress:   36.4%
 ccsd(t): done       29 out of       77 progress:   37.7%
 ccsd(t): done       30 out of       77 progress:   39.0%
 ccsd(t): done       31 out of       77 progress:   40.3%
 ccsd(t): done       32 out of       77 progress:   41.6%
 ccsd(t): done       33 out of       77 progress:   42.9%
 ccsd(t): done       34 out of       77 progress:   44.2%
 ccsd(t): done       35 out of       77 progress:   45.5%
 ccsd(t): done       36 out of       77 progress:   46.8%
 ccsd(t): done       37 out of       77 progress:   48.1%
 ccsd(t): done       38 out of       77 progress:   49.4%
 ccsd(t): done       39 out of       77 progress:   50.6%
 ccsd(t): done       40 out of       77 progress:   51.9%
 ccsd(t): done       41 out of       77 progress:   53.2%
 ccsd(t): done       42 out of       77 progress:   54.5%
 ccsd(t): done       43 out of       77 progress:   55.8%
 ccsd(t): done       44 out of       77 progress:   57.1%
 ccsd(t): done       45 out of       77 progress:   58.4%
 ccsd(t): done       46 out of       77 progress:   59.7%
 ccsd(t): done       47 out of       77 progress:   61.0%
 ccsd(t): done       48 out of       77 progress:   62.3%
 ccsd(t): done       49 out of       77 progress:   63.6%
 ccsd(t): done       50 out of       77 progress:   64.9%
 ccsd(t): done       51 out of       77 progress:   66.2%
 ccsd(t): done       52 out of       77 progress:   67.5%
 ccsd(t): done       53 out of       77 progress:   68.8%
 ccsd(t): done       54 out of       77 progress:   70.1%
 ccsd(t): done       55 out of       77 progress:   71.4%
 ccsd(t): done       56 out of       77 progress:   72.7%
 ccsd(t): done       57 out of       77 progress:   74.0%
 ccsd(t): done       58 out of       77 progress:   75.3%
 ccsd(t): done       59 out of       77 progress:   76.6%
 ccsd(t): done       60 out of       77 progress:   77.9%
 ccsd(t): done       61 out of       77 progress:   79.2%
 ccsd(t): done       62 out of       77 progress:   80.5%
 ccsd(t): done       63 out of       77 progress:   81.8%
 ccsd(t): done       64 out of       77 progress:   83.1%
 ccsd(t): done       65 out of       77 progress:   84.4%
 ccsd(t): done       66 out of       77 progress:   85.7%
 ccsd(t): done       67 out of       77 progress:   87.0%
 ccsd(t): done       68 out of       77 progress:   88.3%
 ccsd(t): done       69 out of       77 progress:   89.6%
 ccsd(t): done       70 out of       77 progress:   90.9%
 ccsd(t): done       71 out of       77 progress:   92.2%
 ccsd(t): done       72 out of       77 progress:   93.5%
 ccsd(t): done       73 out of       77 progress:   94.8%
 ccsd(t): done       74 out of       77 progress:   96.1%
 ccsd(t): done       75 out of       77 progress:   97.4%
 ccsd(t): done       76 out of       77 progress:   98.7%
 ccsd(t): done       77 out of       77 progress:  100.0%
 Time for integral evaluation pass     1        1.73
 Time for triples evaluation pass      1        1.52

 pseudo-e(mp4)  -0.58443702684818E-02
 pseudo-e(mp5)   0.40938525546378E-03
        e(t)    -0.54349850130180E-02

 --------------
 CCSD(T) Energy
 --------------
 Reference energy:                     -76.041355076650959

 CCSD corr. energy:                     -0.231068152842437
 T(CCSD) corr. energy:                  -0.005844370268482
 Total CCSD+T(CCSD) energy:            -76.278267599761875

 CCSD corr. energy:                     -0.231068152842437
 (T) corr. energy:                      -0.005434985013018
 Total CCSD(T) energy:                 -76.277858214506409

 routine      calls  cpu(0)   cpu-min  cpu-ave  cpu-max   i/o 
 aoccsd          1     0.00     0.00     0.00     0.00    0.00
 iterdrv         1     0.04     0.04     0.04     0.04    0.00
 pampt          15     0.02     0.02     0.02     0.02    0.00
 t2pm           15     0.05     0.05     0.05     0.05    0.00
 sxy            15     0.06     0.06     0.06     0.06    0.00
 ints       548849     1.75     1.75     1.75     1.75    0.00
 f_write      1482     0.38     0.38     0.38     0.38    0.00
 t2eri       11115     3.08     3.08     3.08     3.08    0.00
 idx2        11115     0.47     0.47     0.47     0.47    0.00
 idx34          15     0.04     0.04     0.04     0.04    0.00
 ht2pm          15     0.06     0.06     0.06     0.06    0.00
 itm            15     0.39     0.39     0.39     0.39    0.00
 pdiis          15     0.01     0.01     0.01     0.01    0.00
 r_read      10374     0.23     0.23     0.23     0.23    0.00
 triples         1     0.00     0.00     0.00     0.00    0.00
 rdtrpo          1     0.00     0.00     0.00     0.00    0.00
 trpmos          1     1.73     1.73     1.73     1.73    0.00
 trpdrv          1     0.11     0.11     0.11     0.11    0.00
 dovvv       11550     1.09     1.09     1.09     1.09    0.00
 doooo       11550     0.12     0.12     0.12     0.12    0.00
 tengy        9625     0.21     0.21     0.21     0.21    0.00
 Total                 9.84     9.84     9.84     9.84    0.00

 Task  times  cpu:       11.9s     wall:       11.9s
 Summary of allocated global arrays
-----------------------------------
  No active global arrays


MA_summarize_allocated_blocks: starting scan ...
MA_summarize_allocated_blocks: scan completed: 0 heap blocks, 0 stack blocks
MA usage statistics:

	allocation statistics:
					      heap	     stack
					      ----	     -----
	current number of blocks	         0	         0
	maximum number of blocks	        17	        41
	current total bytes		         0	         0
	maximum total bytes		  96492336	 377974120
	maximum total K-bytes		     96493	    377975
	maximum total M-bytes		        97	       378


                                NWChem Input Module
                                -------------------




                                     CITATION
                                     --------
                Please cite the following reference when publishing
                           results obtained with NWChem:

          E. Apra, E. J. Bylaska, W. A. de Jong, N. Govind, K. Kowalski,
       T. P. Straatsma, M. Valiev, H. J. J. van Dam, Y. Alexeev, J. Anchell,
       V. Anisimov, F. W. Aquino, R. Atta-Fynn, J. Autschbach, N. P. Bauman,
     J. C. Becca, D. E. Bernholdt, K. Bhaskaran-Nair, S. Bogatko, P. Borowski,
         J. Boschen, J. Brabec, A. Bruner, E. Cauet, Y. Chen, G. N. Chuev,
      C. J. Cramer, J. Daily, M. J. O. Deegan, T. H. Dunning Jr., M. Dupuis,
   K. G. Dyall, G. I. Fann, S. A. Fischer, A. Fonari, H. Fruchtl, L. Gagliardi,
      J. Garza, N. Gawande, S. Ghosh, K. Glaesemann, A. W. Gotz, J. Hammond,
       V. Helms, E. D. Hermes, K. Hirao, S. Hirata, M. Jacquelin, L. Jensen,
   B. G. Johnson, H. Jonsson, R. A. Kendall, M. Klemm, R. Kobayashi, V. Konkov,
      S. Krishnamoorthy, M. Krishnan, Z. Lin, R. D. Lins, R. J. Littlefield,
      A. J. Logsdail, K. Lopata, W. Ma, A. V. Marenich, J. Martin del Campo,
   D. Mejia-Rodriguez, J. E. Moore, J. M. Mullin, T. Nakajima, D. R. Nascimento,
    J. A. Nichols, P. J. Nichols, J. Nieplocha, A. Otero-de-la-Roza, B. Palmer,
    A. Panyala, T. Pirojsirikul, B. Peng, R. Peverati, J. Pittner, L. Pollack,
   R. M. Richard, P. Sadayappan, G. C. Schatz, W. A. Shelton, D. W. Silverstein,
   D. M. A. Smith, T. A. Soares, D. Song, M. Swart, H. L. Taylor, G. S. Thomas,
            V. Tipparaju, D. G. Truhlar, K. Tsemekhman, T. Van Voorhis,
      A. Vazquez-Mayagoitia, P. Verma, O. Villa, A. Vishnu, K. D. Vogiatzis,
        D. Wang, J. H. Weare, M. J. Williamson, T. L. Windus, K. Wolinski,
        A. T. Wong, Q. Wu, C. Yang, Q. Yu, M. Zacharias, Z. Zhang, Y. Zhao,
                                and R. J. Harrison
                        "NWChem: Past, present, and future
                         J. Chem. Phys. 152, 184102 (2020)
                               doi:10.1063/5.0004997

                                      AUTHORS
                                      -------
  E. Apra, E. J. Bylaska, N. Govind, K. Kowalski, M. Valiev, D. Mejia-Rodriguez,
       A. Kunitsa, N. P. Bauman, A. Panyala, W. A. de Jong, T. P. Straatsma,
   H. J. J. van Dam, D. Wang, T. L. Windus, J. Hammond, J. Autschbach, A. Woods,
    K. Bhaskaran-Nair, J. Brabec, K. Lopata, S. A. Fischer, S. Krishnamoorthy,
     M. Jacquelin, W. Ma, M. Klemm, O. Villa, Y. Chen, V. Anisimov, F. Aquino,
     S. Hirata, M. T. Hackler, E. Hermes, L. Jensen, J. E. Moore, J. C. Becca,
      V. Konjkov, T. Risthaus, M. Malagoli, A. Marenich, A. Otero-de-la-Roza,
        J. Mullin, P. Nichols, R. Peverati, J. Pittner, Y. Zhao, P.-D. Fan,
        A. Fonari, M. J. Williamson, R. J. Harrison, J. R. Rehr, M. Dupuis,
     D. Silverstein, D. M. A. Smith, J. Nieplocha, V. Tipparaju, M. Krishnan,
     B. E. Van Kuiken, A. Vazquez-Mayagoitia, M. Swart, Q. Wu, T. Van Voorhis,
     A. A. Auer, M. Nooijen, L. D. Crosby, E. Brown, G. Cisneros, G. I. Fann,
   H. Fruchtl, J. Garza, K. Hirao, R. A. Kendall, J. A. Nichols, K. Tsemekhman,
    K. Wolinski, J. Anchell, D. E. Bernholdt, P. Borowski, T. Clark, D. Clerc,
   H. Dachsel, M. J. O. Deegan, K. Dyall, D. Elwood, E. Glendening, M. Gutowski,
   A. C. Hess, J. Jaffe, B. G. Johnson, J. Ju, R. Kobayashi, R. Kutteh, Z. Lin,
   R. Littlefield, X. Long, B. Meng, T. Nakajima, S. Niu, L. Pollack, M. Rosing,
   K. Glaesemann, G. Sandrone, M. Stave, H. Taylor, G. Thomas, J. H. van Lenthe,
                               A. T. Wong, Z. Zhang.

 Total times  cpu:       12.0s     wall:       12.0s
