 argument  1 = /var/folders/v1/k9l8hql13n1gcrjl_yh_gs5m0000gn/T/tmp4z6ccg4_/input_B_AB.txt
                                         
                                         


             Northwest Computational Chemistry Package (NWChem) 7.2.3
             --------------------------------------------------------


                    Environmental Molecular Sciences Laboratory
                       Pacific Northwest National Laboratory
                                Richland, WA 99352

                              Copyright (c) 1994-2022
                       Pacific Northwest National Laboratory
                            Battelle Memorial Institute

             NWChem is an open-source computational chemistry package
                        distributed under the terms of the
                      Educational Community License (ECL) 2.0
             A copy of the license is included with this distribution
                              in the LICENSE.TXT file

                                  ACKNOWLEDGMENT
                                  --------------

            This software and its documentation were developed at the
            EMSL at Pacific Northwest National Laboratory, a multiprogram
            national laboratory, operated for the U.S. Department of Energy
            by Battelle under Contract Number DE-AC05-76RL01830. Support
            for this work was provided by the Department of Energy Office
            of Biological and Environmental Research, Office of Basic
            Energy Sciences, and the Office of Advanced Scientific Computing.


           Job information
           ---------------

    hostname        = visitor-wireless1-147-155-221-109.ameslab.gov
    program         = nwchem
    date            = Wed Jul  2 16:22:46 2025

    compiled        = Thu_Dec_26_16:03:44_2024
    source          = /private/tmp/nwchem-20241226-24280-orrtsi/nwchem-7.2.3
    nwchem branch   = 7.2.3
    nwchem revision = d690e065
    ga revision     = 5.8.0
    use scalapack   = T
    input           = /var/folders/v1/k9l8hql13n1gcrjl_yh_gs5m0000gn/T/tmp4z6ccg4_/input_B_AB.txt
    prefix          = input_B_AB.
    data base       = ./input_B_AB.db
    status          = restart
    nproc           =        8
    time left       =     -1s



           Memory information
           ------------------

    heap     =  536870908 doubles =   4096.0 Mbytes
    stack    =  536870913 doubles =   4096.0 Mbytes
    global   = 1073741824 doubles =   8192.0 Mbytes (distinct from heap & stack)
    total    = 2147483645 doubles =  16384.0 Mbytes
    verify   = yes
    hardfail = no 


           Directory information
           ---------------------

  0 permanent = .
  0 scratch   = .


           Previous task information
           -------------------------

    Theory    = ccsd(t)                         
    Operation = energy                        
    Status    = ok                            
    Qmmm      = F
    Ignore    = F


           Geometries in the database
           --------------------------

       Name                              Natoms  Last Modified
       --------------------------------  ------  ------------------------
    1  geometry                               6  Wed Jul  2 16:21:45 2025  

  The geometry named "geometry" is the default for restart



           Basis sets in the database
           --------------------------

       Name                              Natoms  Last Modified
        --------------------------------  ------  ------------------------
    1  ao basis                               4  Wed Jul  2 16:21:45 2025  

  The basis set named "ao basis" is the default AO basis for restart




                                NWChem Input Module
                                -------------------



 Scaling coordinates for geometry "geometry" by  1.889725989
 (inverse scale =  0.529177249)

 CS  symmetry detected


                             Geometry "geometry" -> ""
                             -------------------------

 Output coordinates in angstroms (scale by  1.889725989 to convert to a.u.)

  No.       Tag          Charge          X              Y              Z
 ---- ---------------- ---------- -------------- -------------- --------------
    1 bqO                  0.0000    -0.47311849    -3.75651593     0.00000000
    2 bqH                  0.0000     0.11956160    -3.80737525    -0.76108217
    3 bqH                  0.0000     0.11956160    -3.80737525     0.76108217
    4 O                    8.0000     0.01093927     0.11847211     0.00000000
    5 H                    1.0000    -0.80155826    -0.40392715     0.00000000
    6 H                    1.0000     0.71404412    -0.54384977     0.00000000

      Atomic Mass 
      ----------- 

      O                 15.994910
      H                  1.007825


 Effective nuclear repulsion energy (a.u.)       9.1130601434

            Nuclear Dipole moment (a.u.) 
            ----------------------------
        X                 Y               Z
 ---------------- ---------------- ----------------
     0.0000000000    -0.0000000000     0.0000000000

      Symmetry information
      --------------------

 Group name             Cs        
 Group number              2
 Group order               2
 No. of unique centers     5

      Symmetry unique atoms

     1    2    4    5    6


            XYZ format geometry
            -------------------
     6
 geometry
 bqO                  -0.47311849    -3.75651593     0.00000000
 bqH                   0.11956160    -3.80737525    -0.76108217
 bqH                   0.11956160    -3.80737525     0.76108217
 O                     0.01093927     0.11847211     0.00000000
 H                    -0.80155826    -0.40392715     0.00000000
 H                     0.71404412    -0.54384977     0.00000000

 ==============================================================================
                                internuclear distances
 ------------------------------------------------------------------------------
       center one      |      center two      | atomic units |  angstroms
 ------------------------------------------------------------------------------
    2 bqH              |   1 bqO              |     1.82542  |     0.96597
    3 bqH              |   1 bqO              |     1.82542  |     0.96597
    3 bqH              |   2 bqH              |     2.87647  |     1.52216
    5 H                |   4 O                |     1.82537  |     0.96595
    6 H                |   4 O                |     1.82535  |     0.96593
 ------------------------------------------------------------------------------
                         number of included internuclear distances:          5
 ==============================================================================



 ==============================================================================
                                 internuclear angles
 ------------------------------------------------------------------------------
        center 1       |       center 2       |       center 3       |  degrees
 ------------------------------------------------------------------------------
    2 bqH              |   1 bqO              |   3 bqH              |   103.98
    2 bqH              |   1 bqO              |   3 bqH              |   103.98
    3 bqH              |   1 bqO              |   2 bqH              |   103.98
    5 H                |   4 O                |   6 H                |   103.97
 ------------------------------------------------------------------------------
                            number of included internuclear angles:          4
 ==============================================================================



  library name resolved from: environment
  library file name is: </opt/homebrew/Caskroom/mambaforge/base/envs/ames/share/nwchem/libraries/>
  
                      Basis "ao basis" -> "" (spherical)
                      -----
  bqO
  ---
            Exponent  Coefficients 
       -------------- ---------------------------------------------------------
  1 S  1.17200000E+04  0.000710
  1 S  1.75900000E+03  0.005470
  1 S  4.00800000E+02  0.027837
  1 S  1.13700000E+02  0.104800
  1 S  3.70300000E+01  0.283062
  1 S  1.32700000E+01  0.448719
  1 S  5.02500000E+00  0.270952
  1 S  1.01300000E+00  0.015458

  2 S  1.17200000E+04 -0.000160
  2 S  1.75900000E+03 -0.001263
  2 S  4.00800000E+02 -0.006267
  2 S  1.13700000E+02 -0.025716
  2 S  3.70300000E+01 -0.070924
  2 S  1.32700000E+01 -0.165411
  2 S  5.02500000E+00 -0.116955
  2 S  1.01300000E+00  0.557368

  3 S  3.02300000E-01  1.000000

  4 S  7.89600000E-02  1.000000

  5 P  1.77000000E+01  0.043018
  5 P  3.85400000E+00  0.228913
  5 P  1.04600000E+00  0.508728

  6 P  2.75300000E-01  1.000000

  7 P  6.85600000E-02  1.000000

  8 D  1.18500000E+00  1.000000

  9 D  3.32000000E-01  1.000000

  bqH
  ---
            Exponent  Coefficients 
       -------------- ---------------------------------------------------------
  1 S  1.30100000E+01  0.019685
  1 S  1.96200000E+00  0.137977
  1 S  4.44600000E-01  0.478148

  2 S  1.22000000E-01  1.000000

  3 S  2.97400000E-02  1.000000

  4 P  7.27000000E-01  1.000000

  5 P  1.41000000E-01  1.000000

  O (Oxygen)
  ----------
            Exponent  Coefficients 
       -------------- ---------------------------------------------------------
  1 S  1.17200000E+04  0.000710
  1 S  1.75900000E+03  0.005470
  1 S  4.00800000E+02  0.027837
  1 S  1.13700000E+02  0.104800
  1 S  3.70300000E+01  0.283062
  1 S  1.32700000E+01  0.448719
  1 S  5.02500000E+00  0.270952
  1 S  1.01300000E+00  0.015458

  2 S  1.17200000E+04 -0.000160
  2 S  1.75900000E+03 -0.001263
  2 S  4.00800000E+02 -0.006267
  2 S  1.13700000E+02 -0.025716
  2 S  3.70300000E+01 -0.070924
  2 S  1.32700000E+01 -0.165411
  2 S  5.02500000E+00 -0.116955
  2 S  1.01300000E+00  0.557368

  3 S  3.02300000E-01  1.000000

  4 S  7.89600000E-02  1.000000

  5 P  1.77000000E+01  0.043018
  5 P  3.85400000E+00  0.228913
  5 P  1.04600000E+00  0.508728

  6 P  2.75300000E-01  1.000000

  7 P  6.85600000E-02  1.000000

  8 D  1.18500000E+00  1.000000

  9 D  3.32000000E-01  1.000000

  H (Hydrogen)
  ------------
            Exponent  Coefficients 
       -------------- ---------------------------------------------------------
  1 S  1.30100000E+01  0.019685
  1 S  1.96200000E+00  0.137977
  1 S  4.44600000E-01  0.478148

  2 S  1.22000000E-01  1.000000

  3 S  2.97400000E-02  1.000000

  4 P  7.27000000E-01  1.000000

  5 P  1.41000000E-01  1.000000



 Summary of "ao basis" -> "" (spherical)
 ------------------------------------------------------------------------------
       Tag                 Description            Shells   Functions and Types
 ---------------- ------------------------------  ------  ---------------------
 bqO                      aug-cc-pvdz                9       23   4s3p2d
 bqH                      aug-cc-pvdz                5        9   3s2p
 O                        aug-cc-pvdz                9       23   4s3p2d
 H                        aug-cc-pvdz                5        9   3s2p


                                 NWChem SCF Module
                                 -----------------



  ao basis        = "ao basis"
  functions       =    82
  atoms           =     6
  closed shells   =     5
  open shells     =     0
  charge          =   0.00
  wavefunction    = RHF 
  input vectors   = ./input_B_AB.movecs
  output vectors  = ./input_B_AB.movecs
  use symmetry    = T
  symmetry adapt  = T


 Summary of "ao basis" -> "ao basis" (spherical)
 ------------------------------------------------------------------------------
       Tag                 Description            Shells   Functions and Types
 ---------------- ------------------------------  ------  ---------------------
 bqO                      aug-cc-pvdz                9       23   4s3p2d
 bqH                      aug-cc-pvdz                5        9   3s2p
 O                        aug-cc-pvdz                9       23   4s3p2d
 H                        aug-cc-pvdz                5        9   3s2p


      Symmetry analysis of basis
      --------------------------

        a'         55
        a"         27


 Forming initial guess at       0.1s


 Loading old vectors from job with title :




      Symmetry analysis of molecular orbitals - initial
      -------------------------------------------------

  Numbering of irreducible representations: 

     1 a'          2 a"      

  Orbital symmetries:

     1 a'          2 a'          3 a'          4 a'          5 a"      
     6 a'          7 a'          8 a"          9 a'         10 a'      
    11 a'         12 a'         13 a"         14 a"         15 a'      


 Starting SCF solution at       0.2s



 ----------------------------------------------
         Quadratically convergent ROHF

 Convergence threshold     :          1.000E-06
 Maximum no. of iterations :           30
 Final Fock-matrix accuracy:          1.000E-08
 ----------------------------------------------


 Integral file          = ./input_B_AB.aoints.0
 Record size in doubles =  65536        No. of integs per rec  =  43688
 Max. records in memory =     17        Max. records in file   =   3873
 No. of bits per label  =      8        No. of bits per value  =     64


 #quartets = 1.692D+05 #integrals = 2.597D+06 #direct =  0.0% #cached =100.0%


File balance: exchanges=    16  moved=     4  time=   0.0


              iter       energy          gnorm     gmax       time
             ----- ------------------- --------- --------- --------
                 1      -76.0406714612  4.34D-02  1.08D-02      0.4
                 2      -76.0408003738  1.68D-03  4.67D-04      0.6
                 3      -76.0408006635  7.34D-07  1.90D-07      1.0


       Final RHF  results 
       ------------------ 

         Total SCF energy =    -76.040800663524
      One-electron energy =   -122.829869847500
      Two-electron energy =     37.676009040605
 Nuclear repulsion energy =      9.113060143370

        Time for solution =      0.9s



       Symmetry analysis of molecular orbitals - final
       -----------------------------------------------

  Numbering of irreducible representations: 

     1 a'          2 a"      

  Orbital symmetries:

     1 a'          2 a'          3 a'          4 a'          5 a"      
     6 a'          7 a'          8 a"          9 a'         10 a'      
    11 a'         12 a'         13 a"         14 a"         15 a'      

             Final eigenvalues
             -----------------

              1      
    1  -20.5790
    2   -1.3526
    3   -0.7135
    4   -0.5850
    5   -0.5089
    6    0.0238
    7    0.0566
    8    0.0576
    9    0.0598
   10    0.1367
   11    0.1502
   12    0.1716
   13    0.1952
   14    0.2062
   15    0.2277

                       ROHF Final Molecular Orbital Analysis
                       -------------------------------------

 Vector    2  Occ=2.000000D+00  E=-1.352562D+00  Symmetry=a'
              MO Center= -4.5D-03, -4.9D-02,  6.5D-16, r^2= 5.0D-01
   Bfn.  Coefficient  Atom+Function         Bfn.  Coefficient  Atom+Function  
  ----- ------------  ---------------      ----- ------------  ---------------
    43      0.448921  4 O  s                 44      0.382168  4 O  s          
    65      0.202524  5 H  s                 74      0.202548  6 H  s          

 Vector    3  Occ=2.000000D+00  E=-7.134865D-01  Symmetry=a'
              MO Center= -8.7D-03, -9.4D-02,  8.8D-18, r^2= 7.7D-01
   Bfn.  Coefficient  Atom+Function         Bfn.  Coefficient  Atom+Function  
  ----- ------------  ---------------      ----- ------------  ---------------
    46      0.496730  4 O  px                65     -0.347019  5 H  s          
    74      0.347024  6 H  s                 49      0.196883  4 O  px         

 Vector    4  Occ=2.000000D+00  E=-5.850336D-01  Symmetry=a'
              MO Center=  1.4D-02,  1.5D-01,  2.8D-18, r^2= 7.3D-01
   Bfn.  Coefficient  Atom+Function         Bfn.  Coefficient  Atom+Function  
  ----- ------------  ---------------      ----- ------------  ---------------
    47      0.545166  4 O  py                50      0.322971  4 O  py         
    44      0.317435  4 O  s                 65     -0.212549  5 H  s          
    74     -0.212534  6 H  s                 43      0.151759  4 O  s          

 Vector    5  Occ=2.000000D+00  E=-5.088737D-01  Symmetry=a"
              MO Center=  7.3D-03,  8.0D-02, -5.4D-16, r^2= 6.8D-01
   Bfn.  Coefficient  Atom+Function         Bfn.  Coefficient  Atom+Function  
  ----- ------------  ---------------      ----- ------------  ---------------
    48      0.628766  4 O  pz                51      0.450579  4 O  pz         

 Vector    6  Occ=0.000000D+00  E= 2.384227D-02  Symmetry=a'
              MO Center= -3.3D-02, -3.0D+00,  2.5D-17, r^2= 1.2D+01
   Bfn.  Coefficient  Atom+Function         Bfn.  Coefficient  Atom+Function  
  ----- ------------  ---------------      ----- ------------  ---------------
     4      0.944757  1 bq s                 45      0.653370  4 O  s          
    26     -0.580442  2 bq s                 35     -0.580442  3 bq s          
    67     -0.381446  5 H  s                 25     -0.315049  2 bq s          
    34     -0.315049  3 bq s                 66     -0.242536  5 H  s          
    11      0.227313  1 bq px                76     -0.208427  6 H  s          

 Vector    7  Occ=0.000000D+00  E= 5.655372D-02  Symmetry=a'
              MO Center= -1.3D+00, -1.0D+00, -9.9D-17, r^2= 1.5D+01
   Bfn.  Coefficient  Atom+Function         Bfn.  Coefficient  Atom+Function  
  ----- ------------  ---------------      ----- ------------  ---------------
    67      2.824124  5 H  s                 76     -1.575699  6 H  s          
    45     -0.994297  4 O  s                 66      0.700935  5 H  s          
    52      0.628569  4 O  px                 4      0.475511  1 bq s          
    26     -0.453111  2 bq s                 35     -0.453111  3 bq s          

 Vector    8  Occ=0.000000D+00  E= 5.764311D-02  Symmetry=a"
              MO Center=  3.8D-01, -3.9D+00,  3.8D-16, r^2= 1.5D+01
   Bfn.  Coefficient  Atom+Function         Bfn.  Coefficient  Atom+Function  
  ----- ------------  ---------------      ----- ------------  ---------------
    26      2.828372  2 bq s                 35     -2.828372  3 bq s          
    13      0.650504  1 bq pz                25      0.487959  2 bq s          
    34     -0.487959  3 bq s          

 Vector    9  Occ=0.000000D+00  E= 5.978250D-02  Symmetry=a'
              MO Center=  1.3D+00, -1.4D+00, -2.1D-17, r^2= 1.6D+01
   Bfn.  Coefficient  Atom+Function         Bfn.  Coefficient  Atom+Function  
  ----- ------------  ---------------      ----- ------------  ---------------
    76      2.761324  6 H  s                 45     -1.369452  4 O  s          
    67     -1.132042  5 H  s                 75      0.767608  6 H  s          
     4      0.731915  1 bq s                 26     -0.604867  2 bq s          
    35     -0.604867  3 bq s                 52     -0.511556  4 O  px         
    25     -0.252563  2 bq s                 34     -0.252563  3 bq s          

 Vector   10  Occ=0.000000D+00  E= 1.367257D-01  Symmetry=a'
              MO Center= -2.8D-01, -2.5D+00, -5.3D-16, r^2= 1.1D+01
   Bfn.  Coefficient  Atom+Function         Bfn.  Coefficient  Atom+Function  
  ----- ------------  ---------------      ----- ------------  ---------------
     4      2.977248  1 bq s                 45      2.083407  4 O  s          
    25     -0.853367  2 bq s                 34     -0.853367  3 bq s          
    66     -0.795731  5 H  s                 75     -0.770850  6 H  s          
    53     -0.736808  4 O  py                67     -0.642222  5 H  s          
    26     -0.586916  2 bq s                 35     -0.586916  3 bq s          

 Vector   11  Occ=0.000000D+00  E= 1.501873D-01  Symmetry=a'
              MO Center= -6.6D-01, -3.3D+00, -1.2D-16, r^2= 1.0D+01
   Bfn.  Coefficient  Atom+Function         Bfn.  Coefficient  Atom+Function  
  ----- ------------  ---------------      ----- ------------  ---------------
    11      1.809320  1 bq px                 4      1.651733  1 bq s          
    76     -1.154679  6 H  s                 25     -1.050732  2 bq s          
    34     -1.050732  3 bq s                 67      1.049515  5 H  s          
    75      0.249043  6 H  s                 12      0.190644  1 bq py         
     3      0.169105  1 bq s                 45     -0.153864  4 O  s          

 Vector   12  Occ=0.000000D+00  E= 1.716209D-01  Symmetry=a'
              MO Center= -3.1D-01, -3.2D+00,  6.9D-18, r^2= 1.3D+01
   Bfn.  Coefficient  Atom+Function         Bfn.  Coefficient  Atom+Function  
  ----- ------------  ---------------      ----- ------------  ---------------
     4      3.420970  1 bq s                 45     -1.381750  4 O  s          
    25     -1.077941  2 bq s                 34     -1.077941  3 bq s          
    12     -1.026179  1 bq py                26     -0.849106  2 bq s          
    35     -0.849106  3 bq s                 11      0.704550  1 bq px         
    66      0.680341  5 H  s                 53      0.660093  4 O  py         

 Vector   13  Occ=0.000000D+00  E= 1.952204D-01  Symmetry=a"
              MO Center= -5.4D-01, -3.7D+00, -3.8D-15, r^2= 1.0D+01
   Bfn.  Coefficient  Atom+Function         Bfn.  Coefficient  Atom+Function  
  ----- ------------  ---------------      ----- ------------  ---------------
    13      2.881007  1 bq pz                26      2.760927  2 bq s          
    35     -2.760927  3 bq s                 25      2.045939  2 bq s          
    34     -2.045939  3 bq s                 30     -0.413885  2 bq px         
    39      0.413885  3 bq px                32      0.332618  2 bq pz         
    41      0.332618  3 bq pz                10      0.296887  1 bq pz         

 Vector   14  Occ=0.000000D+00  E= 2.062306D-01  Symmetry=a"
              MO Center=  2.6D-02,  1.9D-01,  6.0D-18, r^2= 7.9D+00
   Bfn.  Coefficient  Atom+Function         Bfn.  Coefficient  Atom+Function  
  ----- ------------  ---------------      ----- ------------  ---------------
    54      1.467260  4 O  pz                26      0.344318  2 bq s          
    35     -0.344318  3 bq s                 82     -0.295885  6 H  pz         
    73     -0.291565  5 H  pz                51     -0.236384  4 O  pz         
    13     -0.218749  1 bq pz                25     -0.199637  2 bq s          
    34      0.199637  3 bq s                 48     -0.170234  4 O  pz         

 Vector   15  Occ=0.000000D+00  E= 2.277221D-01  Symmetry=a'
              MO Center=  2.1D-01, -1.8D+00,  3.5D-17, r^2= 1.1D+01
   Bfn.  Coefficient  Atom+Function         Bfn.  Coefficient  Atom+Function  
  ----- ------------  ---------------      ----- ------------  ---------------
    45      4.104273  4 O  s                 75     -1.959173  6 H  s          
    53     -1.310140  4 O  py                76     -1.253946  6 H  s          
    12     -1.176220  1 bq py                66     -0.841621  5 H  s          
    80      0.623344  6 H  px                81     -0.528910  6 H  py         
     4     -0.513927  1 bq s                 52      0.481467  4 O  px         

 Vector   16  Occ=0.000000D+00  E= 2.363891D-01  Symmetry=a'
              MO Center= -7.6D-01, -5.0D-02,  6.9D-18, r^2= 1.0D+01
   Bfn.  Coefficient  Atom+Function         Bfn.  Coefficient  Atom+Function  
  ----- ------------  ---------------      ----- ------------  ---------------
    67      3.076766  5 H  s                 52      2.813741  4 O  px         
    76     -2.574086  6 H  s                 66      2.522818  5 H  s          
    75     -2.148570  6 H  s                 45     -1.044721  4 O  s          
    71      0.813343  5 H  px                72      0.683337  5 H  py         
    81     -0.482631  6 H  py                80      0.407159  6 H  px         

 Vector   17  Occ=0.000000D+00  E= 2.505718D-01  Symmetry=a'
              MO Center=  3.4D-01,  2.4D-01,  2.5D-17, r^2= 9.7D+00
   Bfn.  Coefficient  Atom+Function         Bfn.  Coefficient  Atom+Function  
  ----- ------------  ---------------      ----- ------------  ---------------
    53      1.728827  4 O  py                76     -1.480600  6 H  s          
    66      1.442531  5 H  s                 52      0.983771  4 O  px         
    12      0.804416  1 bq py                81     -0.528883  6 H  py         
    26      0.517556  2 bq s                 35      0.517556  3 bq s          
    72     -0.289721  5 H  py                 4     -0.202813  1 bq s          

 Vector   18  Occ=0.000000D+00  E= 2.911720D-01  Symmetry=a'
              MO Center= -1.2D-01, -7.8D-01,  2.6D-17, r^2= 6.8D+00
   Bfn.  Coefficient  Atom+Function         Bfn.  Coefficient  Atom+Function  
  ----- ------------  ---------------      ----- ------------  ---------------
    52      1.420706  4 O  px                75     -1.364766  6 H  s          
    66      1.201729  5 H  s                  4      1.057461  1 bq s          
    11      0.665388  1 bq px                25     -0.587007  2 bq s          
    34     -0.587007  3 bq s                 67      0.524655  5 H  s          
    76     -0.501560  6 H  s                 81      0.500137  6 H  py         

 Vector   19  Occ=0.000000D+00  E= 3.312844D-01  Symmetry=a'
              MO Center=  8.6D-02, -5.8D-01, -1.4D-16, r^2= 6.0D+00
   Bfn.  Coefficient  Atom+Function         Bfn.  Coefficient  Atom+Function  
  ----- ------------  ---------------      ----- ------------  ---------------
    45      5.293724  4 O  s                 75     -2.928845  6 H  s          
    66     -2.606807  5 H  s                  4     -1.743555  1 bq s          
    53     -1.190597  4 O  py                25      0.826754  2 bq s          
    34      0.826754  3 bq s                 72     -0.458425  5 H  py         
    12     -0.455143  1 bq py                76     -0.338788  6 H  s          

 Vector   20  Occ=0.000000D+00  E= 3.456643D-01  Symmetry=a"
              MO Center=  1.2D-01, -2.9D+00, -7.2D-16, r^2= 6.5D+00
   Bfn.  Coefficient  Atom+Function         Bfn.  Coefficient  Atom+Function  
  ----- ------------  ---------------      ----- ------------  ---------------
    25      1.348650  2 bq s                 34     -1.348650  3 bq s          
    13      1.078485  1 bq pz                82     -0.650273  6 H  pz         
    73      0.421018  5 H  pz                32     -0.354834  2 bq pz         
    41     -0.354834  3 bq pz                30      0.276165  2 bq px         
    39     -0.276165  3 bq px                26     -0.219570  2 bq s          

 Vector   21  Occ=0.000000D+00  E= 3.781798D-01  Symmetry=a'
              MO Center= -5.2D-02, -2.3D+00,  4.3D-16, r^2= 8.5D+00
   Bfn.  Coefficient  Atom+Function         Bfn.  Coefficient  Atom+Function  
  ----- ------------  ---------------      ----- ------------  ---------------
     4      2.521436  1 bq s                 45     -2.483062  4 O  s          
    25     -1.642209  2 bq s                 34     -1.642209  3 bq s          
    66      1.359317  5 H  s                 11      0.790341  1 bq px         
    12     -0.775382  1 bq py                75      0.694405  6 H  s          
    53      0.669718  4 O  py                67      0.642176  5 H  s          

 Vector   22  Occ=0.000000D+00  E= 3.825372D-01  Symmetry=a"
              MO Center=  3.0D-01, -2.3D+00, -2.1D-16, r^2= 7.4D+00
   Bfn.  Coefficient  Atom+Function         Bfn.  Coefficient  Atom+Function  
  ----- ------------  ---------------      ----- ------------  ---------------
    82      0.975568  6 H  pz                54     -0.856184  4 O  pz         
    31     -0.732755  2 bq py                40      0.732755  3 bq py         
    73      0.445235  5 H  pz                32     -0.432590  2 bq pz         
    41     -0.432590  3 bq pz                51     -0.351009  4 O  pz         
    26     -0.245495  2 bq s                 35      0.245495  3 bq s          

 Vector   23  Occ=0.000000D+00  E= 4.056932D-01  Symmetry=a"
              MO Center= -4.1D-01, -1.2D+00, -4.8D-16, r^2= 6.3D+00
   Bfn.  Coefficient  Atom+Function         Bfn.  Coefficient  Atom+Function  
  ----- ------------  ---------------      ----- ------------  ---------------
    73      1.325719  5 H  pz                25     -0.997653  2 bq s          
    34      0.997653  3 bq s                 13     -0.955822  1 bq pz         
    82     -0.600541  6 H  pz                54     -0.373564  4 O  pz         
    26     -0.341016  2 bq s                 35      0.341016  3 bq s          
    31     -0.263279  2 bq py                40      0.263279  3 bq py         

 Vector   24  Occ=0.000000D+00  E= 4.119308D-01  Symmetry=a'
              MO Center= -9.4D-02, -3.2D+00, -3.0D-17, r^2= 6.8D+00
   Bfn.  Coefficient  Atom+Function         Bfn.  Coefficient  Atom+Function  
  ----- ------------  ---------------      ----- ------------  ---------------
    45      2.843792  4 O  s                 66     -1.692571  5 H  s          
    11     -1.415928  1 bq px                75     -1.134487  6 H  s          
    30      0.942423  2 bq px                39      0.942423  3 bq px         
     4     -0.868408  1 bq s                 53     -0.749728  4 O  py         
    25      0.580453  2 bq s                 34      0.580453  3 bq s          

 Vector   25  Occ=0.000000D+00  E= 4.399327D-01  Symmetry=a'
              MO Center= -3.4D-01, -2.7D+00,  6.5D-16, r^2= 7.3D+00
   Bfn.  Coefficient  Atom+Function         Bfn.  Coefficient  Atom+Function  
  ----- ------------  ---------------      ----- ------------  ---------------
     4      4.714287  1 bq s                 25     -2.718621  2 bq s          
    34     -2.718621  3 bq s                 45      1.528502  4 O  s          
    12      1.391120  1 bq py                11      1.269044  1 bq px         
    75     -1.150991  6 H  s                 66     -0.995469  5 H  s          
    31     -0.877588  2 bq py                40     -0.877588  3 bq py         

 Vector   26  Occ=0.000000D+00  E= 4.716952D-01  Symmetry=a'
              MO Center=  4.8D-02, -3.9D+00,  7.8D-15, r^2= 5.4D+00
   Bfn.  Coefficient  Atom+Function         Bfn.  Coefficient  Atom+Function  
  ----- ------------  ---------------      ----- ------------  ---------------
     4      5.881069  1 bq s                 25     -2.775481  2 bq s          
    34     -2.775481  3 bq s                 32     -1.117545  2 bq pz         
    41      1.117545  3 bq pz                 3      1.073176  1 bq s          
    11      0.791221  1 bq px                30      0.792140  2 bq px         
    39      0.792140  3 bq px                26     -0.749759  2 bq s          

 Vector   27  Occ=0.000000D+00  E= 4.899838D-01  Symmetry=a"
              MO Center=  1.7D-01, -2.6D+00, -4.4D-16, r^2= 7.0D+00
   Bfn.  Coefficient  Atom+Function         Bfn.  Coefficient  Atom+Function  
  ----- ------------  ---------------      ----- ------------  ---------------
    25      1.184313  2 bq s                 34     -1.184313  3 bq s          
    31     -0.869255  2 bq py                40      0.869255  3 bq py         
    82     -0.858010  6 H  pz                32      0.851255  2 bq pz         
    41      0.851255  3 bq pz                73     -0.675459  5 H  pz         
    54      0.600066  4 O  pz                51      0.435306  4 O  pz         

 Vector   28  Occ=0.000000D+00  E= 5.165916D-01  Symmetry=a'
              MO Center=  7.8D-02, -2.5D+00, -7.7D-17, r^2= 6.9D+00
   Bfn.  Coefficient  Atom+Function         Bfn.  Coefficient  Atom+Function  
  ----- ------------  ---------------      ----- ------------  ---------------
     4      4.582064  1 bq s                 25     -2.587761  2 bq s          
    34     -2.587761  3 bq s                 11      1.654452  1 bq px         
    45      1.379144  4 O  s                 75     -1.256450  6 H  s          
    76     -0.722952  6 H  s                 72      0.578930  5 H  py         
    31      0.566308  2 bq py                40      0.566308  3 bq py         


 center of mass
 --------------
 x =   0.00910457 y =   0.09860239 z =   0.00000000

 moments of inertia (a.u.)
 ------------------
           2.278284958371           0.174500419548           0.000000000000
           0.174500419548           4.152675789600           0.000000000000
           0.000000000000           0.000000000000           6.430960747970

  Mulliken analysis of the total density
  --------------------------------------

    Atom       Charge   Shell Charges
 -----------   ------   -------------------------------------------------------
    1 X    0     0.00   0.00  0.00  0.00  0.00  0.00 -0.00  0.00 -0.00 -0.00
    2 X    0    -0.00   0.00 -0.00 -0.00 -0.00 -0.00
    3 X    0    -0.00   0.00 -0.00 -0.00 -0.00 -0.00
    4 O    8     8.32   2.00  0.84  0.82  0.09  2.82  1.64  0.11  0.01 -0.02
    5 H    1     0.84   0.72  0.02 -0.00  0.08  0.02
    6 H    1     0.84   0.72  0.02 -0.00  0.08  0.02

       Multipole analysis of the density wrt the origin
       ------------------------------------------------

     L   x y z        total         open         nuclear
     -   - - -        -----         ----         -------
     0   0 0 0     -0.000000      0.000000     10.000000

     1   1 0 0     -0.072799      0.000000      0.000000
     1   0 1 0     -0.789162      0.000000     -0.000000
     1   0 0 1     -0.000000      0.000000      0.000000

     2   2 0 0     -3.194830      0.000000      4.118551
     2   1 1 0     -0.134172      0.000000     -0.193529
     2   1 0 1     -0.000000      0.000000      0.000000
     2   0 2 0     -4.636464      0.000000      2.039845
     2   0 1 1      0.000000      0.000000      0.000000
     2   0 0 2     -5.657587      0.000000      0.000000


------------------------------------------------------------
EAF file 0: "./input_B_AB.aoints.0" size=524288 bytes
------------------------------------------------------------
               write      read    awrite     aread      wait
               -----      ----    ------     -----      ----
     calls:        1         1         0         0         0
   data(b): 5.24e+05  5.24e+05  0.00e+00  0.00e+00
   time(s): 0.00e+00  0.00e+00  0.00e+00  0.00e+00  0.00e+00
rate(mb/s): 0.00e+00  0.00e+00
------------------------------------------------------------


 Parallel integral file used      64 records with       0 large values



                   Four-Index Transformation
                   -------------------------
          Number of basis functions:             82
          Number of shells:                      38
          Number of occupied orbitals:            5
          Number of occ. correlated orbitals:     5
          Block length:                          16
          Superscript MO index range:      1 -    5
          Subscript MO index range:        1 -   82
          MO coefficients read from:  ./input_B_AB.movecs      
          Number of operator matrices in core:   30
          Half-transformed integrals produced

     Pass:    1     Index range:    1  -    5     Time:      1.01
 ------------------------------------------
 MP2 Energy (coupled cluster initial guess)
 ------------------------------------------
 Reference energy:            -76.040800663524465
 MP2 Corr. energy:             -0.222727638332508
 Total MP2 energy:            -76.263528301856979


 ****************************************************************************
              the segmented parallel ccsd program:    8 nodes
 ****************************************************************************




 level of theory    ccsd(t)
 number of core         0
 number of occupied     5
 number of virtual     77
 number of deleted      0
 total functions       82
 number of shells      38
 basis label          566



   ***** ccsd parameters *****
   iprt   =     0
   convi  =  0.100E-05
   maxit  =    20
   mxvec  =     5
 memory           1073731948
  Using  1 OpenMP thread(s) in CCSD
  avail0,avail1,avail0-avail1                 16300                16300                    0
  avail0,avail1,avail0-avail1                 16300                16301                   -1
  avail0,avail1,avail0-avail1                 16300                16315                  -15
  avail0,avail1,avail0-avail1                 16300                16315                  -15
  Restarting from old vector in ./input_B_AB.t2


-------------------------------------------------------------------------
 iter     correlation     delta       rms       T2     Non-T2      Main
             energy      energy      error      ampl     ampl      Block
                                                time     time      time
-------------------------------------------------------------------------
   1     -0.2267276753 -2.267D-01  1.385D-01     2.10     0.00     2.00
   2     -0.2269780855 -2.504D-04  1.009D-01     0.39     0.00     0.31
   3     -0.2293216501 -2.344D-03  2.744D-02     0.36     0.00     0.28
   4     -0.2299243846 -6.027D-04  2.371D-02     0.38     0.00     0.29
   5     -0.2301033336 -1.789D-04  4.352D-03     0.50     0.00     0.37
   6     -0.2301752279 -7.189D-05  4.962D-04     0.43     0.00     0.33
   7     -0.2301887925 -1.356D-05  1.334D-04     0.40     0.00     0.30
   8     -0.2301877786  1.014D-06  5.549D-05     0.37     0.00     0.29
   9     -0.2301898517 -2.073D-06  1.950D-05     0.42     0.00     0.32
  10     -0.2301893321  5.196D-07  2.344D-05     0.50     0.00     0.37
  11     -0.2301893122  1.992D-08  1.845D-05     0.46     0.00     0.35
  12     -0.2301892773  3.495D-08  8.890D-06     0.48     0.00     0.38
  13     -0.2301892523  2.497D-08  7.264D-07     0.49     0.00     0.35
                  *************converged*************
-------------------------------------------------------------------------

 -----------
 CCSD Energy
 -----------
 Reference energy:             -76.040800663524465
 CCSD corr. energy:             -0.230189252310376
 Total CCSD energy:            -76.270989915834846


 --------------------------------
 Spin Component Scaled (SCS) CCSD
 --------------------------------
 Same spin contribution:                 -0.050242474054514
 Same spin scaling factor:                1.130000000000000
 Opposite spin contribution:             -0.179946778255862
 Opposite spin scaling fact.:             1.270000000000000
 SCS-CCSD correlation energy:            -0.285306404066546
 Total SCS-CCSD energy:                 -76.326107067591010
 memory           1073731948


*********triples calculation*********

nkpass=    1; nvpass=    1; memdrv=         170401; memtrn=         942207; memavail=     1073731548
 memory available/node                     1073731548
 total number of virtual orbitals        77
 number of virtuals per integral pass    77
 number of integral evaluations           1
 number of occupied per triples pass      5
 number of triples passes                 1

 commencing integral evaluation        1 at           9.65
  symmetry use  T
task         2 out of       741 done   0%  at       0.0 secs
task        44 out of       741 done   5%  at       0.2 secs
task        76 out of       741 done  10%  at       0.3 secs
task       113 out of       741 done  15%  at       0.7 secs
task       180 out of       741 done  24%  at       0.8 secs
task       193 out of       741 done  26%  at       0.8 secs
task       226 out of       741 done  30%  at       0.9 secs
task       283 out of       741 done  38%  at       1.0 secs
task       302 out of       741 done  40%  at       1.1 secs
task       341 out of       741 done  46%  at       1.2 secs
task       376 out of       741 done  50%  at       1.2 secs
task       408 out of       741 done  55%  at       1.3 secs
task       452 out of       741 done  60%  at       1.3 secs
task       495 out of       741 done  66%  at       1.4 secs
task       521 out of       741 done  70%  at       1.4 secs
task       599 out of       741 done  80%  at       1.4 secs
task       633 out of       741 done  85%  at       1.5 secs
task       667 out of       741 done  90%  at       1.5 secs
task       706 out of       741 done  95%  at       1.6 secs
 commencing triples evaluation - blocking       1
 ccsd(t): done        1 out of       77 progress:    1.3%
 ccsd(t): done        2 out of       77 progress:    2.6%
 ccsd(t): done        3 out of       77 progress:    3.9%
 ccsd(t): done        4 out of       77 progress:    5.2%
 ccsd(t): done        5 out of       77 progress:    6.5%
 ccsd(t): done        6 out of       77 progress:    7.8%
 ccsd(t): done        7 out of       77 progress:    9.1%
 ccsd(t): done        8 out of       77 progress:   10.4%
 ccsd(t): done        9 out of       77 progress:   11.7%
 ccsd(t): done       10 out of       77 progress:   13.0%
 ccsd(t): done       11 out of       77 progress:   14.3%
 ccsd(t): done       12 out of       77 progress:   15.6%
 ccsd(t): done       13 out of       77 progress:   16.9%
 ccsd(t): done       14 out of       77 progress:   18.2%
 ccsd(t): done       15 out of       77 progress:   19.5%
 ccsd(t): done       16 out of       77 progress:   20.8%
 ccsd(t): done       17 out of       77 progress:   22.1%
 ccsd(t): done       18 out of       77 progress:   23.4%
 ccsd(t): done       19 out of       77 progress:   24.7%
 ccsd(t): done       20 out of       77 progress:   26.0%
 ccsd(t): done       21 out of       77 progress:   27.3%
 ccsd(t): done       22 out of       77 progress:   28.6%
 ccsd(t): done       23 out of       77 progress:   29.9%
 ccsd(t): done       24 out of       77 progress:   31.2%
 ccsd(t): done       25 out of       77 progress:   32.5%
 ccsd(t): done       26 out of       77 progress:   33.8%
 ccsd(t): done       27 out of       77 progress:   35.1%
 ccsd(t): done       28 out of       77 progress:   36.4%
 ccsd(t): done       29 out of       77 progress:   37.7%
 ccsd(t): done       30 out of       77 progress:   39.0%
 ccsd(t): done       31 out of       77 progress:   40.3%
 ccsd(t): done       32 out of       77 progress:   41.6%
 ccsd(t): done       33 out of       77 progress:   42.9%
 ccsd(t): done       34 out of       77 progress:   44.2%
 ccsd(t): done       35 out of       77 progress:   45.5%
 ccsd(t): done       36 out of       77 progress:   46.8%
 ccsd(t): done       37 out of       77 progress:   48.1%
 ccsd(t): done       38 out of       77 progress:   49.4%
 ccsd(t): done       39 out of       77 progress:   50.6%
 ccsd(t): done       40 out of       77 progress:   51.9%
 ccsd(t): done       41 out of       77 progress:   53.2%
 ccsd(t): done       42 out of       77 progress:   54.5%
 ccsd(t): done       43 out of       77 progress:   55.8%
 ccsd(t): done       44 out of       77 progress:   57.1%
 ccsd(t): done       45 out of       77 progress:   58.4%
 ccsd(t): done       46 out of       77 progress:   59.7%
 ccsd(t): done       47 out of       77 progress:   61.0%
 ccsd(t): done       48 out of       77 progress:   62.3%
 ccsd(t): done       49 out of       77 progress:   63.6%
 ccsd(t): done       50 out of       77 progress:   64.9%
 ccsd(t): done       51 out of       77 progress:   66.2%
 ccsd(t): done       52 out of       77 progress:   67.5%
 ccsd(t): done       53 out of       77 progress:   68.8%
 ccsd(t): done       54 out of       77 progress:   70.1%
 ccsd(t): done       55 out of       77 progress:   71.4%
 ccsd(t): done       56 out of       77 progress:   72.7%
 ccsd(t): done       57 out of       77 progress:   74.0%
 ccsd(t): done       58 out of       77 progress:   75.3%
 ccsd(t): done       59 out of       77 progress:   76.6%
 ccsd(t): done       60 out of       77 progress:   77.9%
 ccsd(t): done       61 out of       77 progress:   79.2%
 ccsd(t): done       62 out of       77 progress:   80.5%
 ccsd(t): done       63 out of       77 progress:   81.8%
 ccsd(t): done       64 out of       77 progress:   83.1%
 ccsd(t): done       65 out of       77 progress:   84.4%
 ccsd(t): done       66 out of       77 progress:   85.7%
 ccsd(t): done       67 out of       77 progress:   87.0%
 ccsd(t): done       68 out of       77 progress:   88.3%
 ccsd(t): done       69 out of       77 progress:   89.6%
 ccsd(t): done       70 out of       77 progress:   90.9%
 ccsd(t): done       71 out of       77 progress:   92.2%
 ccsd(t): done       72 out of       77 progress:   93.5%
 ccsd(t): done       73 out of       77 progress:   94.8%
 ccsd(t): done       74 out of       77 progress:   96.1%
 ccsd(t): done       75 out of       77 progress:   97.4%
 ccsd(t): done       76 out of       77 progress:   98.7%
 ccsd(t): done       77 out of       77 progress:  100.0%
 Time for integral evaluation pass     1        1.64
 Time for triples evaluation pass      1        1.26

 pseudo-e(mp4)  -0.57289175475632E-02
 pseudo-e(mp5)   0.40817519837524E-03
        e(t)    -0.53207423491880E-02

 --------------
 CCSD(T) Energy
 --------------
 Reference energy:                     -76.040800663524465

 CCSD corr. energy:                     -0.230189252310376
 T(CCSD) corr. energy:                  -0.005728917547563
 Total CCSD+T(CCSD) energy:            -76.276718833382404

 CCSD corr. energy:                     -0.230189252310376
 (T) corr. energy:                      -0.005320742349188
 Total CCSD(T) energy:                 -76.276310658184030

 routine      calls  cpu(0)   cpu-min  cpu-ave  cpu-max   i/o 
 aoccsd          1     0.03     0.03     0.03     0.03    0.00
 iterdrv         1     0.09     0.09     0.09     0.09    0.00
 pampt          13     0.10     0.10     0.10     0.10    0.00
 t2pm           13     0.21     0.21     0.21     0.21    0.00
 sxy            13     0.55     0.19     0.37     0.55    0.00
 ints        68118     0.54     0.52     0.53     0.56    0.00
 f_write       186     0.04     0.04     0.04     0.05    0.00
 t2eri        1209     0.93     0.90     0.92     0.96    0.00
 idx2         1209     3.72     3.72     3.92     4.16    0.00
 idx34          13     0.02     0.01     0.01     0.02    0.00
 ht2pm          13     0.09     0.09     0.09     0.09    0.00
 itm            13     0.96     0.96     0.96     0.96    0.00
 pdiis          13     0.01     0.01     0.01     0.01    0.00
 r_read       1116     0.11     0.11     0.11     0.14    0.00
 triples         1     0.01     0.01     0.01     0.01    0.00
 rdtrpo          1     0.01     0.01     0.01     0.01    0.00
 trpmos          1     1.64     1.64     1.64     1.64    0.00
 trpdrv          1     0.75     0.73     0.76     0.79    0.00
 dovvv        1530     0.38     0.36     0.37     0.39    0.00
 doooo        1530     0.04     0.04     0.04     0.05    0.00
 tengy        1275     0.09     0.07     0.08     0.09    0.00
 Total                10.32    10.32    10.32    10.32    0.00

 Task  times  cpu:       12.5s     wall:       12.5s


                                NWChem Input Module
                                -------------------


 Summary of allocated global arrays
-----------------------------------
  No active global arrays


MA_summarize_allocated_blocks: starting scan ...
MA_summarize_allocated_blocks: scan completed: 0 heap blocks, 0 stack blocks
MA usage statistics:

	allocation statistics:
					      heap	     stack
					      ----	     -----
	current number of blocks	         0	         0
	maximum number of blocks	        18	        42
	current total bytes		         0	         0
	maximum total bytes		   8936432	7731415912
	maximum total K-bytes		      8937	   7731416
	maximum total M-bytes		         9	      7732


                                     CITATION
                                     --------
                Please cite the following reference when publishing
                           results obtained with NWChem:

          E. Apra, E. J. Bylaska, W. A. de Jong, N. Govind, K. Kowalski,
       T. P. Straatsma, M. Valiev, H. J. J. van Dam, Y. Alexeev, J. Anchell,
       V. Anisimov, F. W. Aquino, R. Atta-Fynn, J. Autschbach, N. P. Bauman,
     J. C. Becca, D. E. Bernholdt, K. Bhaskaran-Nair, S. Bogatko, P. Borowski,
         J. Boschen, J. Brabec, A. Bruner, E. Cauet, Y. Chen, G. N. Chuev,
      C. J. Cramer, J. Daily, M. J. O. Deegan, T. H. Dunning Jr., M. Dupuis,
   K. G. Dyall, G. I. Fann, S. A. Fischer, A. Fonari, H. Fruchtl, L. Gagliardi,
      J. Garza, N. Gawande, S. Ghosh, K. Glaesemann, A. W. Gotz, J. Hammond,
       V. Helms, E. D. Hermes, K. Hirao, S. Hirata, M. Jacquelin, L. Jensen,
   B. G. Johnson, H. Jonsson, R. A. Kendall, M. Klemm, R. Kobayashi, V. Konkov,
      S. Krishnamoorthy, M. Krishnan, Z. Lin, R. D. Lins, R. J. Littlefield,
      A. J. Logsdail, K. Lopata, W. Ma, A. V. Marenich, J. Martin del Campo,
   D. Mejia-Rodriguez, J. E. Moore, J. M. Mullin, T. Nakajima, D. R. Nascimento,
    J. A. Nichols, P. J. Nichols, J. Nieplocha, A. Otero-de-la-Roza, B. Palmer,
    A. Panyala, T. Pirojsirikul, B. Peng, R. Peverati, J. Pittner, L. Pollack,
   R. M. Richard, P. Sadayappan, G. C. Schatz, W. A. Shelton, D. W. Silverstein,
   D. M. A. Smith, T. A. Soares, D. Song, M. Swart, H. L. Taylor, G. S. Thomas,
            V. Tipparaju, D. G. Truhlar, K. Tsemekhman, T. Van Voorhis,
      A. Vazquez-Mayagoitia, P. Verma, O. Villa, A. Vishnu, K. D. Vogiatzis,
        D. Wang, J. H. Weare, M. J. Williamson, T. L. Windus, K. Wolinski,
        A. T. Wong, Q. Wu, C. Yang, Q. Yu, M. Zacharias, Z. Zhang, Y. Zhao,
                                and R. J. Harrison
                        "NWChem: Past, present, and future
                         J. Chem. Phys. 152, 184102 (2020)
                               doi:10.1063/5.0004997

                                      AUTHORS
                                      -------
  E. Apra, E. J. Bylaska, N. Govind, K. Kowalski, M. Valiev, D. Mejia-Rodriguez,
       A. Kunitsa, N. P. Bauman, A. Panyala, W. A. de Jong, T. P. Straatsma,
   H. J. J. van Dam, D. Wang, T. L. Windus, J. Hammond, J. Autschbach, A. Woods,
    K. Bhaskaran-Nair, J. Brabec, K. Lopata, S. A. Fischer, S. Krishnamoorthy,
     M. Jacquelin, W. Ma, M. Klemm, O. Villa, Y. Chen, V. Anisimov, F. Aquino,
     S. Hirata, M. T. Hackler, E. Hermes, L. Jensen, J. E. Moore, J. C. Becca,
      V. Konjkov, T. Risthaus, M. Malagoli, A. Marenich, A. Otero-de-la-Roza,
        J. Mullin, P. Nichols, R. Peverati, J. Pittner, Y. Zhao, P.-D. Fan,
        A. Fonari, M. J. Williamson, R. J. Harrison, J. R. Rehr, M. Dupuis,
     D. Silverstein, D. M. A. Smith, J. Nieplocha, V. Tipparaju, M. Krishnan,
     B. E. Van Kuiken, A. Vazquez-Mayagoitia, M. Swart, Q. Wu, T. Van Voorhis,
     A. A. Auer, M. Nooijen, L. D. Crosby, E. Brown, G. Cisneros, G. I. Fann,
   H. Fruchtl, J. Garza, K. Hirao, R. A. Kendall, J. A. Nichols, K. Tsemekhman,
    K. Wolinski, J. Anchell, D. E. Bernholdt, P. Borowski, T. Clark, D. Clerc,
   H. Dachsel, M. J. O. Deegan, K. Dyall, D. Elwood, E. Glendening, M. Gutowski,
   A. C. Hess, J. Jaffe, B. G. Johnson, J. Ju, R. Kobayashi, R. Kutteh, Z. Lin,
   R. Littlefield, X. Long, B. Meng, T. Nakajima, S. Niu, L. Pollack, M. Rosing,
   K. Glaesemann, G. Sandrone, M. Stave, H. Taylor, G. Thomas, J. H. van Lenthe,
                               A. T. Wong, Z. Zhang.

 Total times  cpu:       12.6s     wall:       12.6s
