 argument  1 = /var/folders/v1/k9l8hql13n1gcrjl_yh_gs5m0000gn/T/tmppwwylw1k/input_B_AB.txt
                                         
                                         


             Northwest Computational Chemistry Package (NWChem) 7.2.3
             --------------------------------------------------------


                    Environmental Molecular Sciences Laboratory
                       Pacific Northwest National Laboratory
                                Richland, WA 99352

                              Copyright (c) 1994-2022
                       Pacific Northwest National Laboratory
                            Battelle Memorial Institute

             NWChem is an open-source computational chemistry package
                        distributed under the terms of the
                      Educational Community License (ECL) 2.0
             A copy of the license is included with this distribution
                              in the LICENSE.TXT file

                                  ACKNOWLEDGMENT
                                  --------------

            This software and its documentation were developed at the
            EMSL at Pacific Northwest National Laboratory, a multiprogram
            national laboratory, operated for the U.S. Department of Energy
            by Battelle under Contract Number DE-AC05-76RL01830. Support
            for this work was provided by the Department of Energy Office
            of Biological and Environmental Research, Office of Basic
            Energy Sciences, and the Office of Advanced Scientific Computing.


           Job information
           ---------------

    hostname        = visitor-wireless1-147-155-221-109.ameslab.gov
    program         = nwchem
    date            = Wed Jul  2 13:57:15 2025

    compiled        = Thu_Dec_26_16:03:44_2024
    source          = /private/tmp/nwchem-20241226-24280-orrtsi/nwchem-7.2.3
    nwchem branch   = 7.2.3
    nwchem revision = d690e065
    ga revision     = 5.8.0
    use scalapack   = T
    input           = /var/folders/v1/k9l8hql13n1gcrjl_yh_gs5m0000gn/T/tmppwwylw1k/input_B_AB.txt
    prefix          = input_B_AB.
    data base       = ./input_B_AB.db
    status          = restart
    nproc           =        8
    time left       =     -1s



           Memory information
           ------------------

    heap     =  536870908 doubles =   4096.0 Mbytes
    stack    =  536870913 doubles =   4096.0 Mbytes
    global   = 1073741824 doubles =   8192.0 Mbytes (distinct from heap & stack)
    total    = 2147483645 doubles =  16384.0 Mbytes
    verify   = yes
    hardfail = no 


           Directory information
           ---------------------

  0 permanent = .
  0 scratch   = .


           Previous task information
           -------------------------

    Theory    = ccsd(t)                         
    Operation = energy                        
    Status    = ok                            
    Qmmm      = F
    Ignore    = F


           Geometries in the database
           --------------------------

       Name                              Natoms  Last Modified
       --------------------------------  ------  ------------------------
    1  geometry                               6  Wed Jul  2 13:56:19 2025  

  The geometry named "geometry" is the default for restart



           Basis sets in the database
           --------------------------

       Name                              Natoms  Last Modified
        --------------------------------  ------  ------------------------
    1  ao basis                               4  Wed Jul  2 13:56:19 2025  

  The basis set named "ao basis" is the default AO basis for restart




                                NWChem Input Module
                                -------------------



 Scaling coordinates for geometry "geometry" by  1.889725989
 (inverse scale =  0.529177249)

 CS  symmetry detected


                             Geometry "geometry" -> ""
                             -------------------------

 Output coordinates in angstroms (scale by  1.889725989 to convert to a.u.)

  No.       Tag          Charge          X              Y              Z
 ---- ---------------- ---------- -------------- -------------- --------------
    1 bqO                  0.0000    -0.46975420    -1.65826667     0.00000000
    2 bqH                  0.0000     0.11468392    -1.76923282    -0.76110871
    3 bqH                  0.0000     0.11468392    -1.76923282     0.76110871
    4 O                    8.0000    -0.02219576    -0.11688380     0.00000000
    5 H                    1.0000     0.08878304     0.46753520    -0.76108056
    6 H                    1.0000     0.08878304     0.46753520     0.76108056

      Atomic Mass 
      ----------- 

      O                 15.994910
      H                  1.007825


 Effective nuclear repulsion energy (a.u.)       9.1127265052

            Nuclear Dipole moment (a.u.) 
            ----------------------------
        X                 Y               Z
 ---------------- ---------------- ----------------
     0.0000000000     0.0000000000     0.0000000000

      Symmetry information
      --------------------

 Group name             Cs        
 Group number              2
 Group order               2
 No. of unique centers     4

      Symmetry unique atoms

     1    2    4    5


            XYZ format geometry
            -------------------
     6
 geometry
 bqO                  -0.46975420    -1.65826667     0.00000000
 bqH                   0.11468392    -1.76923282    -0.76110871
 bqH                   0.11468392    -1.76923282     0.76110871
 O                    -0.02219576    -0.11688380     0.00000000
 H                     0.08878304     0.46753520    -0.76108056
 H                     0.08878304     0.46753520     0.76108056

 ==============================================================================
                                internuclear distances
 ------------------------------------------------------------------------------
       center one      |      center two      | atomic units |  angstroms
 ------------------------------------------------------------------------------
    2 bqH              |   1 bqO              |     1.82549  |     0.96601
    3 bqH              |   1 bqO              |     1.82549  |     0.96601
    3 bqH              |   2 bqH              |     2.87657  |     1.52222
    4 O                |   1 bqO              |     3.03310  |     1.60505
    4 O                |   2 bqH              |     3.44754  |     1.82436
    4 O                |   3 bqH              |     3.44754  |     1.82436
    5 H                |   1 bqO              |     4.39549  |     2.32599
    5 H                |   2 bqH              |     4.22716  |     2.23692
    5 H                |   4 O                |     1.82543  |     0.96597
    6 H                |   1 bqO              |     4.39549  |     2.32599
    6 H                |   3 bqH              |     4.22716  |     2.23692
    6 H                |   4 O                |     1.82543  |     0.96597
 ------------------------------------------------------------------------------
                         number of included internuclear distances:         12
 ==============================================================================



 ==============================================================================
                                 internuclear angles
 ------------------------------------------------------------------------------
        center 1       |       center 2       |       center 3       |  degrees
 ------------------------------------------------------------------------------
    2 bqH              |   1 bqO              |   3 bqH              |   103.98
    2 bqH              |   1 bqO              |   4 O                |    86.65
    1 bqO              |   2 bqH              |   5 H                |    83.00
    2 bqH              |   1 bqO              |   6 H                |   102.56
    3 bqH              |   1 bqO              |   4 O                |    86.65
    3 bqH              |   1 bqO              |   5 H                |   102.56
    1 bqO              |   3 bqH              |   6 H                |    83.00
    1 bqO              |   4 O                |   5 H                |   127.81
    1 bqO              |   4 O                |   6 H                |   127.81
    5 H                |   1 bqO              |   6 H                |    38.20
    2 bqH              |   1 bqO              |   3 bqH              |   103.98
    2 bqH              |   1 bqO              |   4 O                |    86.65
    1 bqO              |   2 bqH              |   5 H                |    83.00
    2 bqH              |   4 O                |   3 bqH              |    49.31
    3 bqH              |   2 bqH              |   5 H                |    90.00
    2 bqH              |   4 O                |   5 H                |   102.16
    3 bqH              |   1 bqO              |   2 bqH              |   103.98
    3 bqH              |   1 bqO              |   4 O                |    86.65
    1 bqO              |   3 bqH              |   6 H                |    83.00
    3 bqH              |   4 O                |   2 bqH              |    49.31
    2 bqH              |   3 bqH              |   6 H                |    90.00
    3 bqH              |   4 O                |   6 H                |   102.16
    4 O                |   1 bqO              |   2 bqH              |    86.65
    4 O                |   1 bqO              |   3 bqH              |    86.65
    1 bqO              |   4 O                |   5 H                |   127.81
    1 bqO              |   4 O                |   6 H                |   127.81
    2 bqH              |   4 O                |   3 bqH              |    49.31
    2 bqH              |   4 O                |   5 H                |   102.16
    2 bqH              |   4 O                |   6 H                |   150.23
    3 bqH              |   4 O                |   5 H                |   150.23
    3 bqH              |   4 O                |   6 H                |   102.16
    5 H                |   4 O                |   6 H                |   103.98
    5 H                |   2 bqH              |   1 bqO              |    83.00
    5 H                |   4 O                |   1 bqO              |   127.81
    5 H                |   4 O                |   2 bqH              |   102.16
    6 H                |   3 bqH              |   1 bqO              |    83.00
    6 H                |   4 O                |   1 bqO              |   127.81
    6 H                |   4 O                |   3 bqH              |   102.16
 ------------------------------------------------------------------------------
                            number of included internuclear angles:         38
 ==============================================================================



  library name resolved from: environment
  library file name is: </opt/homebrew/Caskroom/mambaforge/base/envs/ames/share/nwchem/libraries/>
  
                      Basis "ao basis" -> "" (spherical)
                      -----
  bqO
  ---
            Exponent  Coefficients 
       -------------- ---------------------------------------------------------
  1 S  1.17200000E+04  0.000710
  1 S  1.75900000E+03  0.005470
  1 S  4.00800000E+02  0.027837
  1 S  1.13700000E+02  0.104800
  1 S  3.70300000E+01  0.283062
  1 S  1.32700000E+01  0.448719
  1 S  5.02500000E+00  0.270952
  1 S  1.01300000E+00  0.015458

  2 S  1.17200000E+04 -0.000160
  2 S  1.75900000E+03 -0.001263
  2 S  4.00800000E+02 -0.006267
  2 S  1.13700000E+02 -0.025716
  2 S  3.70300000E+01 -0.070924
  2 S  1.32700000E+01 -0.165411
  2 S  5.02500000E+00 -0.116955
  2 S  1.01300000E+00  0.557368

  3 S  3.02300000E-01  1.000000

  4 S  7.89600000E-02  1.000000

  5 P  1.77000000E+01  0.043018
  5 P  3.85400000E+00  0.228913
  5 P  1.04600000E+00  0.508728

  6 P  2.75300000E-01  1.000000

  7 P  6.85600000E-02  1.000000

  8 D  1.18500000E+00  1.000000

  9 D  3.32000000E-01  1.000000

  bqH
  ---
            Exponent  Coefficients 
       -------------- ---------------------------------------------------------
  1 S  1.30100000E+01  0.019685
  1 S  1.96200000E+00  0.137977
  1 S  4.44600000E-01  0.478148

  2 S  1.22000000E-01  1.000000

  3 S  2.97400000E-02  1.000000

  4 P  7.27000000E-01  1.000000

  5 P  1.41000000E-01  1.000000

  O (Oxygen)
  ----------
            Exponent  Coefficients 
       -------------- ---------------------------------------------------------
  1 S  1.17200000E+04  0.000710
  1 S  1.75900000E+03  0.005470
  1 S  4.00800000E+02  0.027837
  1 S  1.13700000E+02  0.104800
  1 S  3.70300000E+01  0.283062
  1 S  1.32700000E+01  0.448719
  1 S  5.02500000E+00  0.270952
  1 S  1.01300000E+00  0.015458

  2 S  1.17200000E+04 -0.000160
  2 S  1.75900000E+03 -0.001263
  2 S  4.00800000E+02 -0.006267
  2 S  1.13700000E+02 -0.025716
  2 S  3.70300000E+01 -0.070924
  2 S  1.32700000E+01 -0.165411
  2 S  5.02500000E+00 -0.116955
  2 S  1.01300000E+00  0.557368

  3 S  3.02300000E-01  1.000000

  4 S  7.89600000E-02  1.000000

  5 P  1.77000000E+01  0.043018
  5 P  3.85400000E+00  0.228913
  5 P  1.04600000E+00  0.508728

  6 P  2.75300000E-01  1.000000

  7 P  6.85600000E-02  1.000000

  8 D  1.18500000E+00  1.000000

  9 D  3.32000000E-01  1.000000

  H (Hydrogen)
  ------------
            Exponent  Coefficients 
       -------------- ---------------------------------------------------------
  1 S  1.30100000E+01  0.019685
  1 S  1.96200000E+00  0.137977
  1 S  4.44600000E-01  0.478148

  2 S  1.22000000E-01  1.000000

  3 S  2.97400000E-02  1.000000

  4 P  7.27000000E-01  1.000000

  5 P  1.41000000E-01  1.000000



 Summary of "ao basis" -> "" (spherical)
 ------------------------------------------------------------------------------
       Tag                 Description            Shells   Functions and Types
 ---------------- ------------------------------  ------  ---------------------
 bqO                      aug-cc-pvdz                9       23   4s3p2d
 bqH                      aug-cc-pvdz                5        9   3s2p
 O                        aug-cc-pvdz                9       23   4s3p2d
 H                        aug-cc-pvdz                5        9   3s2p


                                 NWChem SCF Module
                                 -----------------



  ao basis        = "ao basis"
  functions       =    82
  atoms           =     6
  closed shells   =     5
  open shells     =     0
  charge          =   0.00
  wavefunction    = RHF 
  input vectors   = ./input_B_AB.movecs
  output vectors  = ./input_B_AB.movecs
  use symmetry    = T
  symmetry adapt  = T


 Summary of "ao basis" -> "ao basis" (spherical)
 ------------------------------------------------------------------------------
       Tag                 Description            Shells   Functions and Types
 ---------------- ------------------------------  ------  ---------------------
 bqO                      aug-cc-pvdz                9       23   4s3p2d
 bqH                      aug-cc-pvdz                5        9   3s2p
 O                        aug-cc-pvdz                9       23   4s3p2d
 H                        aug-cc-pvdz                5        9   3s2p


      Symmetry analysis of basis
      --------------------------

        a'         50
        a"         32


 Forming initial guess at       0.1s


 Loading old vectors from job with title :




      Symmetry analysis of molecular orbitals - initial
      -------------------------------------------------


 !! scf_movecs_sym_adapt:   82 vectors were symmetry contaminated

  Symmetry fudging

 !! scf_movecs_sym_adapt:   81 vectors were symmetry contaminated

  Numbering of irreducible representations: 

     1 a'          2 a"      

  Orbital symmetries:

     1 a'          2 a'          3 a'          4 a'          5 a"      
     6 a'          7 a"          8 a"          9 a'         10 a"      
    11 a'         12 a'         13 a'         14 a'         15 a'      


 Starting SCF solution at       0.1s



 ----------------------------------------------
         Quadratically convergent ROHF

 Convergence threshold     :          1.000E-06
 Maximum no. of iterations :           30
 Final Fock-matrix accuracy:          1.000E-08
 ----------------------------------------------


 Integral file          = ./input_B_AB.aoints.0
 Record size in doubles =  65536        No. of integs per rec  =  43688
 Max. records in memory =     17        Max. records in file   =   4656
 No. of bits per label  =      8        No. of bits per value  =     64


 #quartets = 1.546D+05 #integrals = 3.173D+06 #direct =  0.0% #cached =100.0%


File balance: exchanges=    12  moved=    14  time=   0.0


              iter       energy          gnorm     gmax       time
             ----- ------------------- --------- --------- --------
                 1      -75.0907132706  3.60D+00  1.01D+00      0.4
                 2      -75.8517704027  1.46D+00  3.43D-01      0.6
                 3      -76.0121310675  6.90D-01  2.05D-01      0.8
                 4      -76.0367194110  2.21D-01  6.78D-02      0.8
                 5      -76.0416300988  2.31D-02  5.88D-03      0.9
                 6      -76.0416781215  1.22D-04  3.30D-05      1.1
                 7      -76.0416781236  2.82D-08  6.35D-09      1.3


       Final RHF  results 
       ------------------ 

         Total SCF energy =    -76.041678123624
      One-electron energy =   -122.832885004010
      Two-electron energy =     37.678480375182
 Nuclear repulsion energy =      9.112726505203

        Time for solution =      1.1s



       Symmetry analysis of molecular orbitals - final
       -----------------------------------------------

  Numbering of irreducible representations: 

     1 a'          2 a"      

  Orbital symmetries:

     1 a'          2 a'          3 a"          4 a'          5 a'      
     6 a'          7 a"          8 a'          9 a"         10 a'      
    11 a'         12 a'         13 a'         14 a"         15 a"      

             Final eigenvalues
             -----------------

              1      
    1  -20.5787
    2   -1.3525
    3   -0.7134
    4   -0.5848
    5   -0.5086
    6    0.0336
    7    0.0560
    8    0.0601
    9    0.0860
   10    0.1470
   11    0.1801
   12    0.2064
   13    0.2147
   14    0.2192
   15    0.2314

                       ROHF Final Molecular Orbital Analysis
                       -------------------------------------

 Vector    2  Occ=2.000000D+00  E=-1.352501D+00  Symmetry=a'
              MO Center=  9.1D-03,  4.8D-02, -4.3D-17, r^2= 5.0D-01
   Bfn.  Coefficient  Atom+Function         Bfn.  Coefficient  Atom+Function  
  ----- ------------  ---------------      ----- ------------  ---------------
    43      0.444839  4 O  s                 44      0.390524  4 O  s          
    65      0.207416  5 H  s                 74      0.207416  6 H  s          

 Vector    3  Occ=2.000000D+00  E=-7.134030D-01  Symmetry=a"
              MO Center=  1.8D-02,  9.3D-02,  6.9D-17, r^2= 7.7D-01
   Bfn.  Coefficient  Atom+Function         Bfn.  Coefficient  Atom+Function  
  ----- ------------  ---------------      ----- ------------  ---------------
    48      0.498666  4 O  pz                65     -0.352669  5 H  s          
    74      0.352669  6 H  s                 51      0.198262  4 O  pz         

 Vector    4  Occ=2.000000D+00  E=-5.847879D-01  Symmetry=a'
              MO Center= -2.9D-02, -1.5D-01, -1.4D-17, r^2= 7.3D-01
   Bfn.  Coefficient  Atom+Function         Bfn.  Coefficient  Atom+Function  
  ----- ------------  ---------------      ----- ------------  ---------------
    47      0.538355  4 O  py                44     -0.308080  4 O  s          
    50      0.308102  4 O  py                65      0.213610  5 H  s          
    74      0.213610  6 H  s                 43     -0.154081  4 O  s          

 Vector    5  Occ=2.000000D+00  E=-5.085796D-01  Symmetry=a'
              MO Center= -1.5D-02, -7.8D-02, -4.3D-16, r^2= 6.8D-01
   Bfn.  Coefficient  Atom+Function         Bfn.  Coefficient  Atom+Function  
  ----- ------------  ---------------      ----- ------------  ---------------
    46      0.617459  4 O  px                49      0.444451  4 O  px         

 Vector    6  Occ=0.000000D+00  E= 3.364652D-02  Symmetry=a'
              MO Center=  9.6D-02,  9.5D-01, -9.0D-17, r^2= 1.1D+01
   Bfn.  Coefficient  Atom+Function         Bfn.  Coefficient  Atom+Function  
  ----- ------------  ---------------      ----- ------------  ---------------
    45      1.161952  4 O  s                 67     -0.935072  5 H  s          
    76     -0.935072  6 H  s                  4      0.883959  1 bq s          
    53      0.544595  4 O  py                66     -0.474720  5 H  s          
    75     -0.474720  6 H  s                 12      0.205606  1 bq py         
    25     -0.200513  2 bq s                 34     -0.200513  3 bq s          

 Vector    7  Occ=0.000000D+00  E= 5.596149D-02  Symmetry=a"
              MO Center=  2.0D-01,  4.2D-01,  5.0D-15, r^2= 1.7D+01
   Bfn.  Coefficient  Atom+Function         Bfn.  Coefficient  Atom+Function  
  ----- ------------  ---------------      ----- ------------  ---------------
    67      2.706127  5 H  s                 76     -2.706127  6 H  s          
    54      1.072841  4 O  pz                66      0.587150  5 H  s          
    75     -0.587150  6 H  s                 26      0.565540  2 bq s          
    35     -0.565540  3 bq s                 25      0.318116  2 bq s          
    34     -0.318116  3 bq s          

 Vector    8  Occ=0.000000D+00  E= 6.013733D-02  Symmetry=a'
              MO Center=  2.0D-01, -2.2D+00, -8.2D-16, r^2= 1.5D+01
   Bfn.  Coefficient  Atom+Function         Bfn.  Coefficient  Atom+Function  
  ----- ------------  ---------------      ----- ------------  ---------------
    26      1.360218  2 bq s                 35      1.360218  3 bq s          
     4     -0.968021  1 bq s                 67     -0.964148  5 H  s          
    76     -0.964148  6 H  s                 53      0.807470  4 O  py         
    25      0.557895  2 bq s                 34      0.557895  3 bq s          
    12      0.388570  1 bq py                11     -0.336060  1 bq px         

 Vector    9  Occ=0.000000D+00  E= 8.600064D-02  Symmetry=a"
              MO Center=  3.3D-01, -1.5D+00,  4.8D-15, r^2= 2.0D+01
   Bfn.  Coefficient  Atom+Function         Bfn.  Coefficient  Atom+Function  
  ----- ------------  ---------------      ----- ------------  ---------------
    26      4.204622  2 bq s                 35     -4.204622  3 bq s          
    67     -3.322647  5 H  s                 76      3.322647  6 H  s          
    13      0.899669  1 bq pz                54     -0.713477  4 O  pz         
    25      0.555678  2 bq s                 34     -0.555678  3 bq s          
    66     -0.369483  5 H  s                 75      0.369483  6 H  s          

 Vector   10  Occ=0.000000D+00  E= 1.470095D-01  Symmetry=a'
              MO Center= -6.1D-01, -1.5D+00,  3.0D-15, r^2= 9.3D+00
   Bfn.  Coefficient  Atom+Function         Bfn.  Coefficient  Atom+Function  
  ----- ------------  ---------------      ----- ------------  ---------------
     4      7.214643  1 bq s                 45     -4.892360  4 O  s          
    53      2.548248  4 O  py                12      2.247977  1 bq py         
    11      2.220906  1 bq px                25     -1.668076  2 bq s          
    34     -1.668076  3 bq s                 52      0.964117  4 O  px         
    67     -0.558123  5 H  s                 76     -0.558123  6 H  s          

 Vector   11  Occ=0.000000D+00  E= 1.801381D-01  Symmetry=a'
              MO Center= -7.4D-04,  1.4D-01, -4.8D-15, r^2= 1.1D+01
   Bfn.  Coefficient  Atom+Function         Bfn.  Coefficient  Atom+Function  
  ----- ------------  ---------------      ----- ------------  ---------------
     4      3.878155  1 bq s                 53      2.791820  4 O  py         
    45      2.184685  4 O  s                 66     -1.294340  5 H  s          
    75     -1.294340  6 H  s                 67     -0.950631  5 H  s          
    76     -0.950631  6 H  s                 25     -0.534346  2 bq s          
    34     -0.534346  3 bq s                 11      0.371786  1 bq px         

 Vector   12  Occ=0.000000D+00  E= 2.064162D-01  Symmetry=a'
              MO Center= -2.9D-03, -1.4D+00,  1.2D-15, r^2= 1.1D+01
   Bfn.  Coefficient  Atom+Function         Bfn.  Coefficient  Atom+Function  
  ----- ------------  ---------------      ----- ------------  ---------------
    11      1.840637  1 bq px                 4      1.819077  1 bq s          
    12     -1.766103  1 bq py                52     -1.530600  4 O  px         
    25     -1.388510  2 bq s                 34     -1.388510  3 bq s          
    53     -1.341463  4 O  py                26     -0.958342  2 bq s          
    35     -0.958342  3 bq s                 67      0.948504  5 H  s          

 Vector   13  Occ=0.000000D+00  E= 2.147068D-01  Symmetry=a'
              MO Center=  4.7D-03, -8.1D-01,  2.3D-15, r^2= 9.9D+00
   Bfn.  Coefficient  Atom+Function         Bfn.  Coefficient  Atom+Function  
  ----- ------------  ---------------      ----- ------------  ---------------
    53      2.376207  4 O  py                45     -2.085542  4 O  s          
    52     -1.319857  4 O  px                26      0.932298  2 bq s          
    35      0.932298  3 bq s                 11      0.822096  1 bq px         
    12      0.805576  1 bq py                25      0.629172  2 bq s          
    34      0.629172  3 bq s                 67     -0.625285  5 H  s          

 Vector   14  Occ=0.000000D+00  E= 2.192366D-01  Symmetry=a"
              MO Center= -4.4D-01, -9.6D-01, -4.7D-15, r^2= 1.1D+01
   Bfn.  Coefficient  Atom+Function         Bfn.  Coefficient  Atom+Function  
  ----- ------------  ---------------      ----- ------------  ---------------
    54      2.026311  4 O  pz                25      1.935190  2 bq s          
    34     -1.935190  3 bq s                 26      1.918582  2 bq s          
    35     -1.918582  3 bq s                 13      1.872599  1 bq pz         
    66      1.571055  5 H  s                 75     -1.571055  6 H  s          
    67      1.240148  5 H  s                 76     -1.240148  6 H  s          

 Vector   15  Occ=0.000000D+00  E= 2.313599D-01  Symmetry=a"
              MO Center= -1.9D-01, -3.5D-01, -5.2D-15, r^2= 1.2D+01
   Bfn.  Coefficient  Atom+Function         Bfn.  Coefficient  Atom+Function  
  ----- ------------  ---------------      ----- ------------  ---------------
    54      3.753880  4 O  pz                67      3.154248  5 H  s          
    76     -3.154248  6 H  s                 13     -2.996424  1 bq pz         
    26     -2.389050  2 bq s                 35      2.389050  3 bq s          
    66      2.023953  5 H  s                 75     -2.023953  6 H  s          
    25     -1.327922  2 bq s                 34      1.327922  3 bq s          

 Vector   16  Occ=0.000000D+00  E= 2.327625D-01  Symmetry=a'
              MO Center= -3.3D-01, -5.9D-01,  8.4D-16, r^2= 8.1D+00
   Bfn.  Coefficient  Atom+Function         Bfn.  Coefficient  Atom+Function  
  ----- ------------  ---------------      ----- ------------  ---------------
    53      2.234106  4 O  py                45     -1.535751  4 O  s          
    52      1.022499  4 O  px                25      0.813243  2 bq s          
    34      0.813243  3 bq s                 11     -0.723641  1 bq px         
    12     -0.455894  1 bq py                26      0.378456  2 bq s          
    35      0.378456  3 bq s                 72     -0.366900  5 H  py         

 Vector   17  Occ=0.000000D+00  E= 3.077436D-01  Symmetry=a'
              MO Center= -3.9D-01, -5.0D-01, -2.6D-15, r^2= 7.0D+00
   Bfn.  Coefficient  Atom+Function         Bfn.  Coefficient  Atom+Function  
  ----- ------------  ---------------      ----- ------------  ---------------
     4      8.469505  1 bq s                 45     -5.330057  4 O  s          
    53      3.233969  4 O  py                12      3.035057  1 bq py         
    25     -1.404768  2 bq s                 34     -1.404768  3 bq s          
    11      0.965668  1 bq px                52      0.708355  4 O  px         
    73      0.519983  5 H  pz                82     -0.519983  6 H  pz         

 Vector   18  Occ=0.000000D+00  E= 3.355299D-01  Symmetry=a"
              MO Center=  6.6D-02, -5.3D-01,  4.0D-17, r^2= 6.3D+00
   Bfn.  Coefficient  Atom+Function         Bfn.  Coefficient  Atom+Function  
  ----- ------------  ---------------      ----- ------------  ---------------
    54      1.940646  4 O  pz                13     -1.471479  1 bq pz         
    66      1.292845  5 H  s                 75     -1.292845  6 H  s          
    32      0.518825  2 bq pz                41      0.518825  3 bq pz         
    72      0.480404  5 H  py                81     -0.480404  6 H  py         
    26      0.345136  2 bq s                 35     -0.345136  3 bq s          

 Vector   19  Occ=0.000000D+00  E= 3.441957D-01  Symmetry=a'
              MO Center= -1.0D-01, -7.5D-01,  1.4D-15, r^2= 7.0D+00
   Bfn.  Coefficient  Atom+Function         Bfn.  Coefficient  Atom+Function  
  ----- ------------  ---------------      ----- ------------  ---------------
    45     15.958488  4 O  s                  4     -9.881244  1 bq s          
    66     -3.762616  5 H  s                 75     -3.762616  6 H  s          
    12     -3.573719  1 bq py                53     -3.164090  4 O  py         
    11     -1.090337  1 bq px                52     -0.783175  4 O  px         
    72      0.642275  5 H  py                81      0.642275  6 H  py         

 Vector   20  Occ=0.000000D+00  E= 3.753737D-01  Symmetry=a"
              MO Center= -4.4D-02, -2.9D-01,  3.5D-15, r^2= 6.5D+00
   Bfn.  Coefficient  Atom+Function         Bfn.  Coefficient  Atom+Function  
  ----- ------------  ---------------      ----- ------------  ---------------
    54      2.608620  4 O  pz                66      1.853717  5 H  s          
    75     -1.853717  6 H  s                 67      1.189337  5 H  s          
    76     -1.189337  6 H  s                 13     -1.118497  1 bq pz         
    26     -1.111462  2 bq s                 35      1.111462  3 bq s          
    71      0.701097  5 H  px                80     -0.701097  6 H  px         

 Vector   21  Occ=0.000000D+00  E= 4.452858D-01  Symmetry=a"
              MO Center= -2.6D-02, -8.1D-01,  4.9D-16, r^2= 6.6D+00
   Bfn.  Coefficient  Atom+Function         Bfn.  Coefficient  Atom+Function  
  ----- ------------  ---------------      ----- ------------  ---------------
    13      1.424103  1 bq pz                25      1.088804  2 bq s          
    34     -1.088804  3 bq s                 66      1.050595  5 H  s          
    75     -1.050595  6 H  s                 71     -0.881537  5 H  px         
    80      0.881537  6 H  px                32     -0.555221  2 bq pz         
    41     -0.555221  3 bq pz                54      0.501823  4 O  pz         

 Vector   22  Occ=0.000000D+00  E= 4.573043D-01  Symmetry=a'
              MO Center=  1.1D-01, -1.2D+00, -2.9D-15, r^2= 6.0D+00
   Bfn.  Coefficient  Atom+Function         Bfn.  Coefficient  Atom+Function  
  ----- ------------  ---------------      ----- ------------  ---------------
    45     -5.385715  4 O  s                  4      5.324207  1 bq s          
    25     -2.381249  2 bq s                 34     -2.381249  3 bq s          
    66      1.952173  5 H  s                 75      1.952173  6 H  s          
    53     -1.373464  4 O  py                12      0.937022  1 bq py         
    11      0.841578  1 bq px                30      0.533758  2 bq px         

 Vector   23  Occ=0.000000D+00  E= 4.591425D-01  Symmetry=a'
              MO Center= -1.8D-01, -1.4D+00,  1.3D-15, r^2= 6.0D+00
   Bfn.  Coefficient  Atom+Function         Bfn.  Coefficient  Atom+Function  
  ----- ------------  ---------------      ----- ------------  ---------------
     4      8.790412  1 bq s                 25     -3.527447  2 bq s          
    34     -3.527447  3 bq s                 11      2.894907  1 bq px         
    45     -2.226637  4 O  s                 53      1.816853  4 O  py         
    12      1.201378  1 bq py                66     -0.580968  5 H  s          
    75     -0.580968  6 H  s                 30     -0.394561  2 bq px         

 Vector   24  Occ=0.000000D+00  E= 4.919979D-01  Symmetry=a'
              MO Center=  8.6D-02,  1.2D-01,  6.1D-18, r^2= 5.7D+00
   Bfn.  Coefficient  Atom+Function         Bfn.  Coefficient  Atom+Function  
  ----- ------------  ---------------      ----- ------------  ---------------
     4      5.148666  1 bq s                 45     -2.161802  4 O  s          
    52      2.095892  4 O  px                53      1.458678  4 O  py         
    71     -1.310160  5 H  px                80     -1.310160  6 H  px         
    25     -1.265222  2 bq s                 34     -1.265222  3 bq s          
    12      0.719801  1 bq py                49      0.628070  4 O  px         

 Vector   25  Occ=0.000000D+00  E= 5.235807D-01  Symmetry=a'
              MO Center= -1.2D-02, -7.9D-01, -3.0D-15, r^2= 7.0D+00
   Bfn.  Coefficient  Atom+Function         Bfn.  Coefficient  Atom+Function  
  ----- ------------  ---------------      ----- ------------  ---------------
     4     11.999793  1 bq s                 45     -7.567880  4 O  s          
    53      5.039464  4 O  py                25     -2.369655  2 bq s          
    34     -2.369655  3 bq s                 12      1.743902  1 bq py         
    30      1.323421  2 bq px                39      1.323421  3 bq px         
    72     -0.979061  5 H  py                81     -0.979061  6 H  py         


 center of mass
 --------------
 x =  -0.01847316 y =  -0.09728046 z =   0.00000000

 moments of inertia (a.u.)
 ------------------
           6.352717829114          -0.414602306516           0.000000000000
          -0.414602306516           4.248135983222           0.000000000000
           0.000000000000           0.000000000000           2.262044437303

  Mulliken analysis of the total density
  --------------------------------------

    Atom       Charge   Shell Charges
 -----------   ------   -------------------------------------------------------
    1 X    0    -0.04  -0.00 -0.00  0.00 -0.01 -0.00 -0.01 -0.01  0.00 -0.01
    2 X    0    -0.01  -0.00 -0.01 -0.00 -0.00 -0.00
    3 X    0    -0.01  -0.00 -0.01 -0.00 -0.00 -0.00
    4 O    8     8.36   2.00  0.84  0.83  0.09  2.82  1.61  0.18  0.01 -0.02
    5 H    1     0.86   0.73  0.04 -0.00  0.08  0.01
    6 H    1     0.86   0.73  0.04 -0.00  0.08  0.01

       Multipole analysis of the density wrt the origin
       ------------------------------------------------

     L   x y z        total         open         nuclear
     -   - - -        -----         ----         -------
     0   0 0 0     -0.000000      0.000000     10.000000

     1   1 0 0      0.146698      0.000000      0.000000
     1   0 1 0      0.775023      0.000000      0.000000
     1   0 0 1      0.000000      0.000000      0.000000

     2   2 0 0     -5.632388      0.000000      0.070372
     2   1 1 0      0.188824      0.000000      0.370580
     2   1 0 1     -0.000000      0.000000      0.000000
     2   0 2 0     -4.673119      0.000000      1.951490
     2   0 1 1     -0.000000      0.000000      0.000000
     2   0 0 2     -3.180767      0.000000      4.137032


------------------------------------------------------------
EAF file 0: "./input_B_AB.aoints.0" size=4194304 bytes
------------------------------------------------------------
               write      read    awrite     aread      wait
               -----      ----    ------     -----      ----
     calls:        8         2         0         6         6
   data(b): 4.19e+06  1.05e+06  0.00e+00  3.15e+06
   time(s): 0.00e+00  0.00e+00  0.00e+00  0.00e+00  0.00e+00
rate(mb/s): 0.00e+00  0.00e+00
------------------------------------------------------------


 Parallel integral file used      77 records with       0 large values



                   Four-Index Transformation
                   -------------------------
          Number of basis functions:             82
          Number of shells:                      38
          Number of occupied orbitals:            5
          Number of occ. correlated orbitals:     5
          Block length:                          16
          Superscript MO index range:      1 -    5
          Subscript MO index range:        1 -   82
          MO coefficients read from:  ./input_B_AB.movecs      
          Number of operator matrices in core:   30
          Half-transformed integrals produced

     Pass:    1     Index range:    1  -    5     Time:      1.03
 ------------------------------------------
 MP2 Energy (coupled cluster initial guess)
 ------------------------------------------
 Reference energy:            -76.041678123624408
 MP2 Corr. energy:             -0.224672062001599
 Total MP2 energy:            -76.266350185626010


 ****************************************************************************
              the segmented parallel ccsd program:    8 nodes
 ****************************************************************************




 level of theory    ccsd(t)
 number of core         0
 number of occupied     5
 number of virtual     77
 number of deleted      0
 total functions       82
 number of shells      38
 basis label          566



   ***** ccsd parameters *****
   iprt   =     0
   convi  =  0.100E-05
   maxit  =    20
   mxvec  =     5
 memory           1073731948
  Using  1 OpenMP thread(s) in CCSD
  avail0,avail1,avail0-avail1                 19594                19594                    0
  avail0,avail1,avail0-avail1                 19594                19594                    0
  avail0,avail1,avail0-avail1                 19594                19609                  -15
  avail0,avail1,avail0-avail1                 19594                19609                  -15
  Restarting from old vector in ./input_B_AB.t2


-------------------------------------------------------------------------
 iter     correlation     delta       rms       T2     Non-T2      Main
             energy      energy      error      ampl     ampl      Block
                                                time     time      time
-------------------------------------------------------------------------
   1     -0.2254680666 -2.255D-01  7.686D-02     2.27     0.00     2.18
   2     -0.2267198297 -1.252D-03  1.557D-01     0.38     0.00     0.29
   3     -0.2309542292 -4.234D-03  2.620D-02     0.36     0.00     0.27
   4     -0.2315757787 -6.215D-04  1.494D-02     0.34     0.00     0.25
   5     -0.2319319557 -3.562D-04  1.029D-04     0.36     0.00     0.28
   6     -0.2320325181 -1.006D-04  1.347D-03     0.34     0.00     0.25
   7     -0.2320336115 -1.093D-06  2.604D-04     0.35     0.00     0.26
   8     -0.2320325424  1.069D-06  5.817D-05     0.34     0.00     0.26
   9     -0.2320307143  1.828D-06  2.185D-05     0.34     0.00     0.26
  10     -0.2320299155  7.988D-07  6.903D-06     0.36     0.00     0.28
  11     -0.2320300094 -9.394D-08  1.889D-06     0.33     0.00     0.24
  12     -0.2320301059 -9.650D-08  1.887D-06     0.39     0.00     0.32
  13     -0.2320301623 -5.641D-08  4.636D-07     0.34     0.00     0.27
                  *************converged*************
-------------------------------------------------------------------------

 -----------
 CCSD Energy
 -----------
 Reference energy:             -76.041678123624408
 CCSD corr. energy:             -0.232030162327058
 Total CCSD energy:            -76.273708285951471


 --------------------------------
 Spin Component Scaled (SCS) CCSD
 --------------------------------
 Same spin contribution:                 -0.050587161239115
 Same spin scaling factor:                1.130000000000000
 Opposite spin contribution:             -0.181443001087943
 Opposite spin scaling fact.:             1.270000000000000
 SCS-CCSD correlation energy:            -0.287596103581887
 Total SCS-CCSD energy:                 -76.329274227206298
 memory           1073731948


*********triples calculation*********

nkpass=    1; nvpass=    1; memdrv=         170401; memtrn=         942207; memavail=     1073731548
 memory available/node                     1073731548
 total number of virtual orbitals        77
 number of virtuals per integral pass    77
 number of integral evaluations           1
 number of occupied per triples pass      5
 number of triples passes                 1

 commencing integral evaluation        1 at           9.07
  symmetry use  T
task         2 out of       741 done   0%  at       0.1 secs
task        59 out of       741 done   7%  at       0.2 secs
task        75 out of       741 done  10%  at       0.2 secs
task       114 out of       741 done  15%  at       0.4 secs
task       166 out of       741 done  22%  at       0.5 secs
task       195 out of       741 done  26%  at       0.6 secs
task       240 out of       741 done  32%  at       0.7 secs
task       274 out of       741 done  36%  at       0.8 secs
task       305 out of       741 done  41%  at       0.9 secs
task       340 out of       741 done  45%  at       1.0 secs
task       411 out of       741 done  55%  at       1.0 secs
task       454 out of       741 done  61%  at       1.0 secs
task       497 out of       741 done  67%  at       1.1 secs
task       526 out of       741 done  70%  at       1.1 secs
task       558 out of       741 done  75%  at       1.1 secs
task       597 out of       741 done  80%  at       1.1 secs
task       636 out of       741 done  85%  at       1.2 secs
task       669 out of       741 done  90%  at       1.2 secs
task       705 out of       741 done  95%  at       1.3 secs
task       741 out of       741 done 100%  at       1.3 secs
 commencing triples evaluation - blocking       1
 ccsd(t): done        1 out of       77 progress:    1.3%
 ccsd(t): done        2 out of       77 progress:    2.6%
 ccsd(t): done        3 out of       77 progress:    3.9%
 ccsd(t): done        4 out of       77 progress:    5.2%
 ccsd(t): done        5 out of       77 progress:    6.5%
 ccsd(t): done        6 out of       77 progress:    7.8%
 ccsd(t): done        7 out of       77 progress:    9.1%
 ccsd(t): done        8 out of       77 progress:   10.4%
 ccsd(t): done        9 out of       77 progress:   11.7%
 ccsd(t): done       10 out of       77 progress:   13.0%
 ccsd(t): done       11 out of       77 progress:   14.3%
 ccsd(t): done       12 out of       77 progress:   15.6%
 ccsd(t): done       13 out of       77 progress:   16.9%
 ccsd(t): done       14 out of       77 progress:   18.2%
 ccsd(t): done       15 out of       77 progress:   19.5%
 ccsd(t): done       16 out of       77 progress:   20.8%
 ccsd(t): done       17 out of       77 progress:   22.1%
 ccsd(t): done       18 out of       77 progress:   23.4%
 ccsd(t): done       19 out of       77 progress:   24.7%
 ccsd(t): done       20 out of       77 progress:   26.0%
 ccsd(t): done       21 out of       77 progress:   27.3%
 ccsd(t): done       22 out of       77 progress:   28.6%
 ccsd(t): done       23 out of       77 progress:   29.9%
 ccsd(t): done       24 out of       77 progress:   31.2%
 ccsd(t): done       25 out of       77 progress:   32.5%
 ccsd(t): done       26 out of       77 progress:   33.8%
 ccsd(t): done       27 out of       77 progress:   35.1%
 ccsd(t): done       28 out of       77 progress:   36.4%
 ccsd(t): done       29 out of       77 progress:   37.7%
 ccsd(t): done       30 out of       77 progress:   39.0%
 ccsd(t): done       31 out of       77 progress:   40.3%
 ccsd(t): done       32 out of       77 progress:   41.6%
 ccsd(t): done       33 out of       77 progress:   42.9%
 ccsd(t): done       34 out of       77 progress:   44.2%
 ccsd(t): done       35 out of       77 progress:   45.5%
 ccsd(t): done       36 out of       77 progress:   46.8%
 ccsd(t): done       37 out of       77 progress:   48.1%
 ccsd(t): done       38 out of       77 progress:   49.4%
 ccsd(t): done       39 out of       77 progress:   50.6%
 ccsd(t): done       40 out of       77 progress:   51.9%
 ccsd(t): done       41 out of       77 progress:   53.2%
 ccsd(t): done       42 out of       77 progress:   54.5%
 ccsd(t): done       43 out of       77 progress:   55.8%
 ccsd(t): done       44 out of       77 progress:   57.1%
 ccsd(t): done       45 out of       77 progress:   58.4%
 ccsd(t): done       46 out of       77 progress:   59.7%
 ccsd(t): done       47 out of       77 progress:   61.0%
 ccsd(t): done       48 out of       77 progress:   62.3%
 ccsd(t): done       49 out of       77 progress:   63.6%
 ccsd(t): done       50 out of       77 progress:   64.9%
 ccsd(t): done       51 out of       77 progress:   66.2%
 ccsd(t): done       52 out of       77 progress:   67.5%
 ccsd(t): done       53 out of       77 progress:   68.8%
 ccsd(t): done       54 out of       77 progress:   70.1%
 ccsd(t): done       55 out of       77 progress:   71.4%
 ccsd(t): done       56 out of       77 progress:   72.7%
 ccsd(t): done       57 out of       77 progress:   74.0%
 ccsd(t): done       58 out of       77 progress:   75.3%
 ccsd(t): done       59 out of       77 progress:   76.6%
 ccsd(t): done       60 out of       77 progress:   77.9%
 ccsd(t): done       61 out of       77 progress:   79.2%
 ccsd(t): done       62 out of       77 progress:   80.5%
 ccsd(t): done       63 out of       77 progress:   81.8%
 ccsd(t): done       64 out of       77 progress:   83.1%
 ccsd(t): done       65 out of       77 progress:   84.4%
 ccsd(t): done       66 out of       77 progress:   85.7%
 ccsd(t): done       67 out of       77 progress:   87.0%
 ccsd(t): done       68 out of       77 progress:   88.3%
 ccsd(t): done       69 out of       77 progress:   89.6%
 ccsd(t): done       70 out of       77 progress:   90.9%
 ccsd(t): done       71 out of       77 progress:   92.2%
 ccsd(t): done       72 out of       77 progress:   93.5%
 ccsd(t): done       73 out of       77 progress:   94.8%
 ccsd(t): done       74 out of       77 progress:   96.1%
 ccsd(t): done       75 out of       77 progress:   97.4%
 ccsd(t): done       76 out of       77 progress:   98.7%
 ccsd(t): done       77 out of       77 progress:  100.0%
 Time for integral evaluation pass     1        1.30
 Time for triples evaluation pass      1        1.18

 pseudo-e(mp4)  -0.59439692556006E-02
 pseudo-e(mp5)   0.41160505820434E-03
        e(t)    -0.55323641973963E-02

 --------------
 CCSD(T) Energy
 --------------
 Reference energy:                     -76.041678123624408

 CCSD corr. energy:                     -0.232030162327058
 T(CCSD) corr. energy:                  -0.005943969255601
 Total CCSD+T(CCSD) energy:            -76.279652255207068

 CCSD corr. energy:                     -0.232030162327058
 (T) corr. energy:                      -0.005532364197396
 Total CCSD(T) energy:                 -76.279240650148864

 routine      calls  cpu(0)   cpu-min  cpu-ave  cpu-max   i/o 
 aoccsd          1     0.01     0.01     0.01     0.01    0.00
 iterdrv         1     0.08     0.08     0.08     0.08    0.00
 pampt          13     0.07     0.07     0.07     0.07    0.00
 t2pm           13     0.18     0.18     0.18     0.18    0.00
 sxy            13     0.53     0.16     0.33     0.53    0.00
 ints        68913     0.57     0.53     0.58     0.61    0.00
 f_write       186     0.04     0.04     0.04     0.05    0.00
 t2eri        1209     0.89     0.82     0.86     0.90    0.00
 idx2         1209     3.27     3.27     3.50     3.73    0.00
 idx34          13     0.01     0.01     0.01     0.01    0.00
 ht2pm          13     0.08     0.08     0.08     0.08    0.00
 itm            13     0.74     0.74     0.74     0.74    0.00
 pdiis          13     0.00     0.00     0.00     0.00    0.00
 r_read       1116     0.09     0.08     0.09     0.10    0.00
 triples         1     0.00     0.00     0.00     0.00    0.00
 rdtrpo          1     0.01     0.01     0.01     0.01    0.00
 trpmos          1     1.30     1.30     1.30     1.30    0.00
 trpdrv          1     0.69     0.69     0.71     0.75    0.00
 dovvv        1380     0.36     0.31     0.34     0.36    0.00
 doooo        1380     0.04     0.04     0.04     0.04    0.00
 tengy        1150     0.08     0.07     0.08     0.08    0.00
 Total                 9.07     9.06     9.07     9.07    0.00

 Task  times  cpu:       11.5s     wall:       11.5s


                                NWChem Input Module
                                -------------------


 Summary of allocated global arrays
-----------------------------------
  No active global arrays


MA_summarize_allocated_blocks: starting scan ...
MA_summarize_allocated_blocks: scan completed: 0 heap blocks, 0 stack blocks
MA usage statistics:

	allocation statistics:
					      heap	     stack
					      ----	     -----
	current number of blocks	         0	         0
	maximum number of blocks	        18	        42
	current total bytes		         0	         0
	maximum total bytes		   8936432	7731415912
	maximum total K-bytes		      8937	   7731416
	maximum total M-bytes		         9	      7732


                                     CITATION
                                     --------
                Please cite the following reference when publishing
                           results obtained with NWChem:

          E. Apra, E. J. Bylaska, W. A. de Jong, N. Govind, K. Kowalski,
       T. P. Straatsma, M. Valiev, H. J. J. van Dam, Y. Alexeev, J. Anchell,
       V. Anisimov, F. W. Aquino, R. Atta-Fynn, J. Autschbach, N. P. Bauman,
     J. C. Becca, D. E. Bernholdt, K. Bhaskaran-Nair, S. Bogatko, P. Borowski,
         J. Boschen, J. Brabec, A. Bruner, E. Cauet, Y. Chen, G. N. Chuev,
      C. J. Cramer, J. Daily, M. J. O. Deegan, T. H. Dunning Jr., M. Dupuis,
   K. G. Dyall, G. I. Fann, S. A. Fischer, A. Fonari, H. Fruchtl, L. Gagliardi,
      J. Garza, N. Gawande, S. Ghosh, K. Glaesemann, A. W. Gotz, J. Hammond,
       V. Helms, E. D. Hermes, K. Hirao, S. Hirata, M. Jacquelin, L. Jensen,
   B. G. Johnson, H. Jonsson, R. A. Kendall, M. Klemm, R. Kobayashi, V. Konkov,
      S. Krishnamoorthy, M. Krishnan, Z. Lin, R. D. Lins, R. J. Littlefield,
      A. J. Logsdail, K. Lopata, W. Ma, A. V. Marenich, J. Martin del Campo,
   D. Mejia-Rodriguez, J. E. Moore, J. M. Mullin, T. Nakajima, D. R. Nascimento,
    J. A. Nichols, P. J. Nichols, J. Nieplocha, A. Otero-de-la-Roza, B. Palmer,
    A. Panyala, T. Pirojsirikul, B. Peng, R. Peverati, J. Pittner, L. Pollack,
   R. M. Richard, P. Sadayappan, G. C. Schatz, W. A. Shelton, D. W. Silverstein,
   D. M. A. Smith, T. A. Soares, D. Song, M. Swart, H. L. Taylor, G. S. Thomas,
            V. Tipparaju, D. G. Truhlar, K. Tsemekhman, T. Van Voorhis,
      A. Vazquez-Mayagoitia, P. Verma, O. Villa, A. Vishnu, K. D. Vogiatzis,
        D. Wang, J. H. Weare, M. J. Williamson, T. L. Windus, K. Wolinski,
        A. T. Wong, Q. Wu, C. Yang, Q. Yu, M. Zacharias, Z. Zhang, Y. Zhao,
                                and R. J. Harrison
                        "NWChem: Past, present, and future
                         J. Chem. Phys. 152, 184102 (2020)
                               doi:10.1063/5.0004997

                                      AUTHORS
                                      -------
  E. Apra, E. J. Bylaska, N. Govind, K. Kowalski, M. Valiev, D. Mejia-Rodriguez,
       A. Kunitsa, N. P. Bauman, A. Panyala, W. A. de Jong, T. P. Straatsma,
   H. J. J. van Dam, D. Wang, T. L. Windus, J. Hammond, J. Autschbach, A. Woods,
    K. Bhaskaran-Nair, J. Brabec, K. Lopata, S. A. Fischer, S. Krishnamoorthy,
     M. Jacquelin, W. Ma, M. Klemm, O. Villa, Y. Chen, V. Anisimov, F. Aquino,
     S. Hirata, M. T. Hackler, E. Hermes, L. Jensen, J. E. Moore, J. C. Becca,
      V. Konjkov, T. Risthaus, M. Malagoli, A. Marenich, A. Otero-de-la-Roza,
        J. Mullin, P. Nichols, R. Peverati, J. Pittner, Y. Zhao, P.-D. Fan,
        A. Fonari, M. J. Williamson, R. J. Harrison, J. R. Rehr, M. Dupuis,
     D. Silverstein, D. M. A. Smith, J. Nieplocha, V. Tipparaju, M. Krishnan,
     B. E. Van Kuiken, A. Vazquez-Mayagoitia, M. Swart, Q. Wu, T. Van Voorhis,
     A. A. Auer, M. Nooijen, L. D. Crosby, E. Brown, G. Cisneros, G. I. Fann,
   H. Fruchtl, J. Garza, K. Hirao, R. A. Kendall, J. A. Nichols, K. Tsemekhman,
    K. Wolinski, J. Anchell, D. E. Bernholdt, P. Borowski, T. Clark, D. Clerc,
   H. Dachsel, M. J. O. Deegan, K. Dyall, D. Elwood, E. Glendening, M. Gutowski,
   A. C. Hess, J. Jaffe, B. G. Johnson, J. Ju, R. Kobayashi, R. Kutteh, Z. Lin,
   R. Littlefield, X. Long, B. Meng, T. Nakajima, S. Niu, L. Pollack, M. Rosing,
   K. Glaesemann, G. Sandrone, M. Stave, H. Taylor, G. Thomas, J. H. van Lenthe,
                               A. T. Wong, Z. Zhang.

 Total times  cpu:       11.6s     wall:       11.6s
