 argument  1 = /var/folders/v1/k9l8hql13n1gcrjl_yh_gs5m0000gn/T/tmpvxl_wosk/input_dimer.txt
                                         
                                         


             Northwest Computational Chemistry Package (NWChem) 7.2.3
             --------------------------------------------------------


                    Environmental Molecular Sciences Laboratory
                       Pacific Northwest National Laboratory
                                Richland, WA 99352

                              Copyright (c) 1994-2022
                       Pacific Northwest National Laboratory
                            Battelle Memorial Institute

             NWChem is an open-source computational chemistry package
                        distributed under the terms of the
                      Educational Community License (ECL) 2.0
             A copy of the license is included with this distribution
                              in the LICENSE.TXT file

                                  ACKNOWLEDGMENT
                                  --------------

            This software and its documentation were developed at the
            EMSL at Pacific Northwest National Laboratory, a multiprogram
            national laboratory, operated for the U.S. Department of Energy
            by Battelle under Contract Number DE-AC05-76RL01830. Support
            for this work was provided by the Department of Energy Office
            of Biological and Environmental Research, Office of Basic
            Energy Sciences, and the Office of Advanced Scientific Computing.


           Job information
           ---------------

    hostname        = visitor-wireless1-147-155-221-109.ameslab.gov
    program         = nwchem
    date            = Wed Jul  2 15:34:56 2025

    compiled        = Thu_Dec_26_16:03:44_2024
    source          = /private/tmp/nwchem-20241226-24280-orrtsi/nwchem-7.2.3
    nwchem branch   = 7.2.3
    nwchem revision = d690e065
    ga revision     = 5.8.0
    use scalapack   = T
    input           = /var/folders/v1/k9l8hql13n1gcrjl_yh_gs5m0000gn/T/tmpvxl_wosk/input_dimer.txt
    prefix          = input_dimer.
    data base       = ./input_dimer.db
    status          = restart
    nproc           =        8
    time left       =     -1s



           Memory information
           ------------------

    heap     =  536870908 doubles =   4096.0 Mbytes
    stack    =  536870913 doubles =   4096.0 Mbytes
    global   = 1073741824 doubles =   8192.0 Mbytes (distinct from heap & stack)
    total    = 2147483645 doubles =  16384.0 Mbytes
    verify   = yes
    hardfail = no 


           Directory information
           ---------------------

  0 permanent = .
  0 scratch   = .


           Previous task information
           -------------------------

    Theory    = ccsd(t)                         
    Operation = energy                        
    Status    = ok                            
    Qmmm      = F
    Ignore    = F


           Geometries in the database
           --------------------------

       Name                              Natoms  Last Modified
       --------------------------------  ------  ------------------------
    1  geometry                               6  Wed Jul  2 15:33:49 2025  

  The geometry named "geometry" is the default for restart



           Basis sets in the database
           --------------------------

       Name                              Natoms  Last Modified
        --------------------------------  ------  ------------------------
    1  ao basis                               2  Wed Jul  2 15:33:49 2025  

  The basis set named "ao basis" is the default AO basis for restart




                                NWChem Input Module
                                -------------------



 Scaling coordinates for geometry "geometry" by  1.889725989
 (inverse scale =  0.529177249)

 C1  symmetry detected


                             Geometry "geometry" -> ""
                             -------------------------

 Output coordinates in angstroms (scale by  1.889725989 to convert to a.u.)

  No.       Tag          Charge          X              Y              Z
 ---- ---------------- ---------- -------------- -------------- --------------
    1 O                    8.0000    -0.06634020     1.38083937     0.00289271
    2 H                    1.0000     0.49578918     1.34457876    -0.78189072
    3 H                    1.0000     0.55799094     1.34308086     0.73905854
    4 O                    8.0000     0.06631880    -1.38160866    -0.00212163
    5 H                    1.0000    -0.47456194    -0.58143826     0.01697480
    6 H                    1.0000    -0.57904700    -2.10006708     0.01968879

      Atomic Mass 
      ----------- 

      O                 15.994910
      H                  1.007825


 Effective nuclear repulsion energy (a.u.)      37.4855147803

            Nuclear Dipole moment (a.u.) 
            ----------------------------
        X                 Y               Z
 ---------------- ---------------- ----------------
     0.0000000000     0.0000000000     0.0000000000


            XYZ format geometry
            -------------------
     6
 geometry
 O                    -0.06634020     1.38083937     0.00289271
 H                     0.49578918     1.34457876    -0.78189072
 H                     0.55799094     1.34308086     0.73905854
 O                     0.06631880    -1.38160866    -0.00212163
 H                    -0.47456194    -0.58143826     0.01697480
 H                    -0.57904700    -2.10006708     0.01968879

 ==============================================================================
                                internuclear distances
 ------------------------------------------------------------------------------
       center one      |      center two      | atomic units |  angstroms
 ------------------------------------------------------------------------------
    2 H                |   1 O                |     1.82551  |     0.96602
    3 H                |   1 O                |     1.82547  |     0.96600
    5 H                |   4 O                |     1.82551  |     0.96602
    6 H                |   4 O                |     1.82547  |     0.96600
 ------------------------------------------------------------------------------
                         number of included internuclear distances:          4
 ==============================================================================



 ==============================================================================
                                 internuclear angles
 ------------------------------------------------------------------------------
        center 1       |       center 2       |       center 3       |  degrees
 ------------------------------------------------------------------------------
    2 H                |   1 O                |   3 H                |   103.98
    5 H                |   4 O                |   6 H                |   103.98
 ------------------------------------------------------------------------------
                            number of included internuclear angles:          2
 ==============================================================================



  library name resolved from: environment
  library file name is: </opt/homebrew/Caskroom/mambaforge/base/envs/ames/share/nwchem/libraries/>
  
                      Basis "ao basis" -> "" (spherical)
                      -----
  O (Oxygen)
  ----------
            Exponent  Coefficients 
       -------------- ---------------------------------------------------------
  1 S  1.17200000E+04  0.000710
  1 S  1.75900000E+03  0.005470
  1 S  4.00800000E+02  0.027837
  1 S  1.13700000E+02  0.104800
  1 S  3.70300000E+01  0.283062
  1 S  1.32700000E+01  0.448719
  1 S  5.02500000E+00  0.270952
  1 S  1.01300000E+00  0.015458

  2 S  1.17200000E+04 -0.000160
  2 S  1.75900000E+03 -0.001263
  2 S  4.00800000E+02 -0.006267
  2 S  1.13700000E+02 -0.025716
  2 S  3.70300000E+01 -0.070924
  2 S  1.32700000E+01 -0.165411
  2 S  5.02500000E+00 -0.116955
  2 S  1.01300000E+00  0.557368

  3 S  3.02300000E-01  1.000000

  4 S  7.89600000E-02  1.000000

  5 P  1.77000000E+01  0.043018
  5 P  3.85400000E+00  0.228913
  5 P  1.04600000E+00  0.508728

  6 P  2.75300000E-01  1.000000

  7 P  6.85600000E-02  1.000000

  8 D  1.18500000E+00  1.000000

  9 D  3.32000000E-01  1.000000

  H (Hydrogen)
  ------------
            Exponent  Coefficients 
       -------------- ---------------------------------------------------------
  1 S  1.30100000E+01  0.019685
  1 S  1.96200000E+00  0.137977
  1 S  4.44600000E-01  0.478148

  2 S  1.22000000E-01  1.000000

  3 S  2.97400000E-02  1.000000

  4 P  7.27000000E-01  1.000000

  5 P  1.41000000E-01  1.000000



 Summary of "ao basis" -> "" (spherical)
 ------------------------------------------------------------------------------
       Tag                 Description            Shells   Functions and Types
 ---------------- ------------------------------  ------  ---------------------
 O                        aug-cc-pvdz                9       23   4s3p2d
 H                        aug-cc-pvdz                5        9   3s2p


                                 NWChem SCF Module
                                 -----------------



  ao basis        = "ao basis"
  functions       =    82
  atoms           =     6
  closed shells   =    10
  open shells     =     0
  charge          =   0.00
  wavefunction    = RHF 
  input vectors   = ./input_dimer.movecs
  output vectors  = ./input_dimer.movecs
  use symmetry    = F
  symmetry adapt  = F


 Summary of "ao basis" -> "ao basis" (spherical)
 ------------------------------------------------------------------------------
       Tag                 Description            Shells   Functions and Types
 ---------------- ------------------------------  ------  ---------------------
 O                        aug-cc-pvdz                9       23   4s3p2d
 H                        aug-cc-pvdz                5        9   3s2p



 Forming initial guess at       0.1s


 Loading old vectors from job with title :




 Starting SCF solution at       0.1s



 ----------------------------------------------
         Quadratically convergent ROHF

 Convergence threshold     :          1.000E-06
 Maximum no. of iterations :           30
 Final Fock-matrix accuracy:          1.000E-08
 ----------------------------------------------


 Integral file          = ./input_dimer.aoints.0
 Record size in doubles =  65536        No. of integs per rec  =  43688
 Max. records in memory =     25        Max. records in file   =   3941
 No. of bits per label  =      8        No. of bits per value  =     64


 #quartets = 2.700D+05 #integrals = 5.545D+06 #direct =  0.0% #cached =100.0%


File balance: exchanges=    10  moved=    16  time=   0.0


              iter       energy          gnorm     gmax       time
             ----- ------------------- --------- --------- --------
                 1     -152.0762831594  3.62D-01  9.06D-02      0.6
                 2     -152.0858400161  1.81D-02  5.16D-03      0.7
                 3     -152.0858804990  1.18D-04  2.89D-05      0.9
                 4     -152.0858805005  6.60D-08  1.67D-08      1.5


       Final RHF  results 
       ------------------ 

         Total SCF energy =   -152.085880500514
      One-electron energy =   -284.206562340959
      Two-electron energy =     94.635167060193
 Nuclear repulsion energy =     37.485514780253

        Time for solution =      1.4s


             Final eigenvalues
             -----------------

              1      
    1  -20.5904
    2  -20.5597
    3   -1.3684
    4   -1.3353
    5   -0.7263
    6   -0.7030
    7   -0.6020
    8   -0.5695
    9   -0.5204
   10   -0.4930
   11    0.0346
   12    0.0524
   13    0.0606
   14    0.0852
   15    0.1647
   16    0.1903
   17    0.2198
   18    0.2202
   19    0.2260
   20    0.2262

                       ROHF Final Molecular Orbital Analysis
                       -------------------------------------

 Vector    2  Occ=2.000000D+00  E=-2.055971D+01
              MO Center=  6.6D-02, -1.4D+00, -2.1D-03, r^2= 1.5D-02
   Bfn.  Coefficient  Atom+Function         Bfn.  Coefficient  Atom+Function  
  ----- ------------  ---------------      ----- ------------  ---------------
    42      1.001508  4 O  s          

 Vector    3  Occ=2.000000D+00  E=-1.368359D+00
              MO Center=  8.8D-02,  1.3D+00, -3.5D-03, r^2= 7.7D-01
   Bfn.  Coefficient  Atom+Function         Bfn.  Coefficient  Atom+Function  
  ----- ------------  ---------------      ----- ------------  ---------------
     2      0.438723  1 O  s                  3      0.376198  1 O  s          
    24      0.198152  2 H  s                 33      0.198157  3 H  s          

 Vector    4  Occ=2.000000D+00  E=-1.335323D+00
              MO Center= -9.0D-02, -1.3D+00,  3.2D-03, r^2= 8.0D-01
   Bfn.  Coefficient  Atom+Function         Bfn.  Coefficient  Atom+Function  
  ----- ------------  ---------------      ----- ------------  ---------------
    43      0.439130  4 O  s                 44      0.382794  4 O  s          
    74      0.200855  6 H  s                 65      0.195578  5 H  s          

 Vector    5  Occ=2.000000D+00  E=-7.263184D-01
              MO Center=  1.4D-01,  1.4D+00, -5.7D-03, r^2= 7.7D-01
   Bfn.  Coefficient  Atom+Function         Bfn.  Coefficient  Atom+Function  
  ----- ------------  ---------------      ----- ------------  ---------------
     7      0.499689  1 O  pz                24     -0.344694  2 H  s          
    33      0.344696  3 H  s                 10      0.203155  1 O  pz         

 Vector    6  Occ=2.000000D+00  E=-7.029936D-01
              MO Center= -1.4D-01, -1.3D+00,  5.0D-03, r^2= 1.0D+00
   Bfn.  Coefficient  Atom+Function         Bfn.  Coefficient  Atom+Function  
  ----- ------------  ---------------      ----- ------------  ---------------
    47      0.488295  4 O  py                65      0.337581  5 H  s          
    74     -0.338807  6 H  s                 50      0.193035  4 O  py         

 Vector    7  Occ=2.000000D+00  E=-6.020023D-01
              MO Center= -9.3D-02,  1.2D+00,  4.0D-03, r^2= 1.2D+00
   Bfn.  Coefficient  Atom+Function         Bfn.  Coefficient  Atom+Function  
  ----- ------------  ---------------      ----- ------------  ---------------
     5      0.528044  1 O  px                 8      0.318644  1 O  px         
     3     -0.298552  1 O  s                 24      0.204214  2 H  s          
    33      0.204127  3 H  s          

 Vector    8  Occ=2.000000D+00  E=-5.694946D-01
              MO Center=  8.8D-02, -1.2D+00, -2.8D-03, r^2= 1.3D+00
   Bfn.  Coefficient  Atom+Function         Bfn.  Coefficient  Atom+Function  
  ----- ------------  ---------------      ----- ------------  ---------------
    46      0.524536  4 O  px                49      0.311014  4 O  px         
    44      0.302084  4 O  s                 74     -0.212109  6 H  s          
    65     -0.194432  5 H  s          

 Vector    9  Occ=2.000000D+00  E=-5.204462D-01
              MO Center= -2.8D-02,  1.2D+00,  1.3D-03, r^2= 1.1D+00
   Bfn.  Coefficient  Atom+Function         Bfn.  Coefficient  Atom+Function  
  ----- ------------  ---------------      ----- ------------  ---------------
     6      0.613759  1 O  py                 9      0.455288  1 O  py         

 Vector   10  Occ=2.000000D+00  E=-4.930234D-01
              MO Center=  2.9D-02, -1.4D+00, -8.5D-04, r^2= 7.0D-01
   Bfn.  Coefficient  Atom+Function         Bfn.  Coefficient  Atom+Function  
  ----- ------------  ---------------      ----- ------------  ---------------
    48      0.624672  4 O  pz                51      0.453055  4 O  pz         

 Vector   11  Occ=0.000000D+00  E= 3.455474D-02
              MO Center=  4.8D-01,  3.8D-01, -2.8D-02, r^2= 1.6D+01
   Bfn.  Coefficient  Atom+Function         Bfn.  Coefficient  Atom+Function  
  ----- ------------  ---------------      ----- ------------  ---------------
     4      1.456938  1 O  s                 76     -1.234212  6 H  s          
    67      0.910384  5 H  s                 26     -0.857914  2 H  s          
    35     -0.848708  3 H  s                 45      0.746329  4 O  s          
    25     -0.465662  2 H  s                 34     -0.464728  3 H  s          
    75     -0.440145  6 H  s                 11      0.322745  1 O  px         

 Vector   12  Occ=0.000000D+00  E= 5.236421D-02
              MO Center= -4.0D-01, -1.3D+00,  1.3D-02, r^2= 1.8D+01
   Bfn.  Coefficient  Atom+Function         Bfn.  Coefficient  Atom+Function  
  ----- ------------  ---------------      ----- ------------  ---------------
    76      1.808889  6 H  s                 45     -1.237156  4 O  s          
    75      0.790280  6 H  s                 35     -0.756375  3 H  s          
    26     -0.751390  2 H  s                  4      0.639705  1 O  s          
    53      0.575059  4 O  py                52      0.307356  4 O  px         
    12      0.203714  1 O  py                34     -0.190031  3 H  s          

 Vector   13  Occ=0.000000D+00  E= 6.055002D-02
              MO Center=  9.0D-01,  1.5D+00, -3.2D-02, r^2= 1.5D+01
   Bfn.  Coefficient  Atom+Function         Bfn.  Coefficient  Atom+Function  
  ----- ------------  ---------------      ----- ------------  ---------------
    26      3.035409  2 H  s                 35     -3.038626  3 H  s          
    13      0.795159  1 O  pz                25      0.520558  2 H  s          
    34     -0.520905  3 H  s                 54      0.163063  4 O  pz         

 Vector   14  Occ=0.000000D+00  E= 8.518860D-02
              MO Center= -1.4D+00, -7.1D-01,  5.2D-02, r^2= 1.6D+01
   Bfn.  Coefficient  Atom+Function         Bfn.  Coefficient  Atom+Function  
  ----- ------------  ---------------      ----- ------------  ---------------
    67      6.238343  5 H  s                 76     -3.495753  6 H  s          
    45     -1.446633  4 O  s                 26     -1.183155  2 H  s          
    35     -1.174414  3 H  s                 66      0.846350  5 H  s          
    53     -0.622761  4 O  py                12      0.482352  1 O  py         
    11      0.304757  1 O  px                 4     -0.290532  1 O  s          

 Vector   15  Occ=0.000000D+00  E= 1.646739D-01
              MO Center=  2.4D-01,  1.5D+00, -9.4D-03, r^2= 9.6D+00
   Bfn.  Coefficient  Atom+Function         Bfn.  Coefficient  Atom+Function  
  ----- ------------  ---------------      ----- ------------  ---------------
     4      5.084063  1 O  s                 25     -2.057256  2 H  s          
    34     -2.057865  3 H  s                 11      1.981675  1 O  px         
    67      1.673639  5 H  s                 12     -1.444650  1 O  py         
    45     -1.100116  4 O  s                 76     -1.058108  6 H  s          
    53     -0.882388  4 O  py                26     -0.738724  2 H  s          

 Vector   16  Occ=0.000000D+00  E= 1.903203D-01
              MO Center=  2.7D-01, -8.8D-01, -1.2D-02, r^2= 1.1D+01
   Bfn.  Coefficient  Atom+Function         Bfn.  Coefficient  Atom+Function  
  ----- ------------  ---------------      ----- ------------  ---------------
    45      3.968053  4 O  s                  4      2.499048  1 O  s          
    52     -1.809989  4 O  px                75     -1.738602  6 H  s          
    66     -1.656195  5 H  s                 67     -1.233150  5 H  s          
    25     -0.847627  2 H  s                 34     -0.841936  3 H  s          
    11      0.617375  1 O  px                81     -0.402462  6 H  py         

 Vector   17  Occ=0.000000D+00  E= 2.197513D-01
              MO Center=  3.7D-01, -1.2D+00, -2.5D-02, r^2= 8.2D+00
   Bfn.  Coefficient  Atom+Function         Bfn.  Coefficient  Atom+Function  
  ----- ------------  ---------------      ----- ------------  ---------------
    54      1.588086  4 O  pz                35     -1.235204  3 H  s          
    26      1.119965  2 H  s                 73     -0.368536  5 H  pz         
    34     -0.350267  3 H  s                 25      0.298845  2 H  s          
    82     -0.260811  6 H  pz                13      0.256226  1 O  pz         
    51     -0.248758  4 O  pz                75      0.216595  6 H  s          

 Vector   18  Occ=0.000000D+00  E= 2.201783D-01
              MO Center= -9.1D-02, -1.3D+00,  1.8D-02, r^2= 1.3D+01
   Bfn.  Coefficient  Atom+Function         Bfn.  Coefficient  Atom+Function  
  ----- ------------  ---------------      ----- ------------  ---------------
    75      2.770509  6 H  s                 45     -2.324742  4 O  s          
    53      2.324949  4 O  py                76      2.109251  6 H  s          
    12      0.936453  1 O  py                66     -0.922231  5 H  s          
     4      0.839328  1 O  s                 26     -0.764809  2 H  s          
    80      0.697923  6 H  px                81      0.671388  6 H  py         

 Vector   19  Occ=0.000000D+00  E= 2.260274D-01
              MO Center= -2.5D-01,  1.3D+00, -2.1D-01, r^2= 1.0D+01
   Bfn.  Coefficient  Atom+Function         Bfn.  Coefficient  Atom+Function  
  ----- ------------  ---------------      ----- ------------  ---------------
    13      3.095550  1 O  pz                26      2.609283  2 H  s          
    25      2.567055  2 H  s                 34     -2.555628  3 H  s          
    35     -2.406521  3 H  s                 32      0.560671  2 H  pz         
    30     -0.530320  2 H  px                39      0.474462  3 H  px         
    41      0.444074  3 H  pz                66     -0.293754  5 H  s          

 Vector   20  Occ=0.000000D+00  E= 2.262496D-01
              MO Center=  1.0D-01,  2.2D-01,  2.1D-01, r^2= 1.2D+01
   Bfn.  Coefficient  Atom+Function         Bfn.  Coefficient  Atom+Function  
  ----- ------------  ---------------      ----- ------------  ---------------
    66      1.797194  5 H  s                  4      1.554343  1 O  s          
    75     -1.068490  6 H  s                 35     -1.028470  3 H  s          
    53     -0.994506  4 O  py                52      0.895613  4 O  px         
    12      0.842158  1 O  py                76     -0.669009  6 H  s          
    67      0.636477  5 H  s                 13      0.525391  1 O  pz         

 Vector   21  Occ=0.000000D+00  E= 2.613362D-01
              MO Center= -4.1D-01,  1.3D+00,  1.7D-02, r^2= 1.0D+01
   Bfn.  Coefficient  Atom+Function         Bfn.  Coefficient  Atom+Function  
  ----- ------------  ---------------      ----- ------------  ---------------
    67      4.518186  5 H  s                 76     -2.117717  6 H  s          
    12      2.042761  1 O  py                11      1.713095  1 O  px         
    26     -1.076489  2 H  s                 35     -1.071799  3 H  s          
    25     -0.795726  2 H  s                 34     -0.789574  3 H  s          
    45     -0.788238  4 O  s                 72      0.729058  5 H  py         

 Vector   22  Occ=0.000000D+00  E= 2.823518D-01
              MO Center=  5.3D-01,  1.3D+00, -2.6D-02, r^2= 4.5D+00
   Bfn.  Coefficient  Atom+Function         Bfn.  Coefficient  Atom+Function  
  ----- ------------  ---------------      ----- ------------  ---------------
    34     -0.754697  3 H  s                 13      0.742424  1 O  pz         
    25      0.719574  2 H  s                 32     -0.536585  2 H  pz         
    39     -0.509075  3 H  px                41     -0.488127  3 H  pz         
    30      0.471020  2 H  px                26     -0.468365  2 H  s          
    35      0.453904  3 H  s                 10      0.244603  1 O  pz         

 Vector   23  Occ=0.000000D+00  E= 2.896480D-01
              MO Center=  5.3D-01, -7.0D-01, -1.2D-02, r^2= 8.8D+00
   Bfn.  Coefficient  Atom+Function         Bfn.  Coefficient  Atom+Function  
  ----- ------------  ---------------      ----- ------------  ---------------
    45      3.448187  4 O  s                 53      3.213753  4 O  py         
     4     -3.086837  1 O  s                 66     -3.014023  5 H  s          
    67     -2.870669  5 H  s                 76      1.804607  6 H  s          
    75      1.540650  6 H  s                 12      1.224517  1 O  py         
    25      1.043144  2 H  s                 34      1.018635  3 H  s          

 Vector   24  Occ=0.000000D+00  E= 3.216771D-01
              MO Center= -6.0D-01, -6.8D-01,  2.2D-02, r^2= 5.7D+00
   Bfn.  Coefficient  Atom+Function         Bfn.  Coefficient  Atom+Function  
  ----- ------------  ---------------      ----- ------------  ---------------
     4      2.168441  1 O  s                 45      1.457646  4 O  s          
    67     -1.245538  5 H  s                 25     -1.140798  2 H  s          
    34     -1.144855  3 H  s                 75     -0.982649  6 H  s          
    76      0.682241  6 H  s                 71     -0.671721  5 H  px         
    11      0.583739  1 O  px                81      0.531579  6 H  py         

 Vector   25  Occ=0.000000D+00  E= 3.396352D-01
              MO Center=  1.7D-01,  4.7D-01, -7.1D-03, r^2= 6.6D+00
   Bfn.  Coefficient  Atom+Function         Bfn.  Coefficient  Atom+Function  
  ----- ------------  ---------------      ----- ------------  ---------------
    45      3.561425  4 O  s                  4     -3.198021  1 O  s          
    75     -1.590089  6 H  s                 25      1.450424  2 H  s          
    34      1.452215  3 H  s                 66     -1.142251  5 H  s          
    12      0.971470  1 O  py                52     -0.693469  4 O  px         
    30     -0.667096  2 H  px                39     -0.637979  3 H  px         

 Vector   26  Occ=0.000000D+00  E= 3.772920D-01
              MO Center=  2.6D-02, -4.0D-02, -7.7D-03, r^2= 6.8D+00
   Bfn.  Coefficient  Atom+Function         Bfn.  Coefficient  Atom+Function  
  ----- ------------  ---------------      ----- ------------  ---------------
    82     -0.799427  6 H  pz                31      0.738215  2 H  py         
    40     -0.729856  3 H  py                73      0.555060  5 H  pz         
    26     -0.390852  2 H  s                 35      0.389991  3 H  s          
    25      0.340632  2 H  s                 34     -0.340848  3 H  s          
    13     -0.338797  1 O  pz                41      0.274350  3 H  pz         

 Vector   27  Occ=0.000000D+00  E= 4.177816D-01
              MO Center= -5.2D-02, -6.6D-01,  1.5D-03, r^2= 6.5D+00
   Bfn.  Coefficient  Atom+Function         Bfn.  Coefficient  Atom+Function  
  ----- ------------  ---------------      ----- ------------  ---------------
    45      4.815767  4 O  s                 75     -3.100313  6 H  s          
    66     -2.692530  5 H  s                 52     -1.961888  4 O  px         
     4      1.519192  1 O  s                 67     -1.080163  5 H  s          
    49     -0.641826  4 O  px                34     -0.583798  3 H  s          
    25     -0.580671  2 H  s                 80      0.429737  6 H  px         

 Vector   28  Occ=0.000000D+00  E= 4.422103D-01
              MO Center= -2.1D-01, -7.9D-01,  6.8D-03, r^2= 6.8D+00
   Bfn.  Coefficient  Atom+Function         Bfn.  Coefficient  Atom+Function  
  ----- ------------  ---------------      ----- ------------  ---------------
    45      2.724650  4 O  s                  4     -2.113903  1 O  s          
    66     -1.791216  5 H  s                 11     -1.467164  1 O  px         
    67     -1.445199  5 H  s                 25      1.421176  2 H  s          
    34      1.419502  3 H  s                 81      1.118921  6 H  py         
    80     -0.942548  6 H  px                53     -0.911408  4 O  py         

 Vector   29  Occ=0.000000D+00  E= 4.559838D-01
              MO Center= -4.1D-01, -1.2D+00,  1.3D-02, r^2= 5.5D+00
   Bfn.  Coefficient  Atom+Function         Bfn.  Coefficient  Atom+Function  
  ----- ------------  ---------------      ----- ------------  ---------------
    54      1.325415  4 O  pz                82     -1.322417  6 H  pz         
    73     -1.093689  5 H  pz                26      0.660186  2 H  s          
    35     -0.654468  3 H  s                 51      0.608662  4 O  pz         
    34      0.560281  3 H  s                 25     -0.546583  2 H  s          
    32     -0.519423  2 H  pz                41     -0.512939  3 H  pz         

 Vector   30  Occ=0.000000D+00  E= 4.939530D-01
              MO Center= -2.0D-01,  1.0D+00,  8.9D-03, r^2= 6.1D+00
   Bfn.  Coefficient  Atom+Function         Bfn.  Coefficient  Atom+Function  
  ----- ------------  ---------------      ----- ------------  ---------------
     4      9.511153  1 O  s                 25     -4.343374  2 H  s          
    34     -4.330198  3 H  s                 12     -2.316954  1 O  py         
    66     -2.268814  5 H  s                 11      1.908564  1 O  px         
    75     -0.988009  6 H  s                 72     -0.848580  5 H  py         
     8      0.808845  1 O  px                45      0.679319  4 O  s          

 Vector   31  Occ=0.000000D+00  E= 5.336701D-01
              MO Center=  1.7D-01,  7.0D-01, -2.8D-03, r^2= 5.9D+00
   Bfn.  Coefficient  Atom+Function         Bfn.  Coefficient  Atom+Function  
  ----- ------------  ---------------      ----- ------------  ---------------
    34     -1.744120  3 H  s                 41      1.741837  3 H  pz         
    25      1.686117  2 H  s                 32      1.684726  2 H  pz         
    73     -1.037114  5 H  pz                30      0.730489  2 H  px         
    40     -0.626858  3 H  py                31      0.610209  2 H  py         
    39     -0.592865  3 H  px                82      0.560946  6 H  pz         


 center of mass
 --------------
 x =  -0.00000890 y =  -0.00032013 z =   0.00032088

 moments of inertia (a.u.)
 ------------------
         252.197732404581          -0.000000000000          -0.000000000000
          -0.000000000000           8.694319904693          -0.000000000000
          -0.000000000000          -0.000000000000         252.553585553997

  Mulliken analysis of the total density
  --------------------------------------

    Atom       Charge   Shell Charges
 -----------   ------   -------------------------------------------------------
    1 O    8     8.40   2.00  0.84  0.82  0.11  2.82  1.68  0.12  0.01 -0.02
    2 H    1     0.81   0.71  0.00 -0.00  0.08  0.02
    3 H    1     0.81   0.71  0.00 -0.00  0.08  0.02
    4 O    8     8.36   2.00  0.84  0.83  0.10  2.82  1.65  0.12  0.01 -0.02
    5 H    1     0.82   0.70  0.04 -0.00  0.08  0.00
    6 H    1     0.79   0.72 -0.01 -0.00  0.08  0.00

       Multipole analysis of the density wrt the origin
       ------------------------------------------------

     L   x y z        total         open         nuclear
     -   - - -        -----         ----         -------
     0   0 0 0     -0.000000      0.000000     20.000000

     1   1 0 0      0.014224      0.000000      0.000000
     1   0 1 0      0.136572      0.000000      0.000000
     1   0 0 1     -0.005483      0.000000      0.000000

     2   2 0 0     -8.941273      0.000000      4.242635
     2   1 1 0      4.323940      0.000000      5.150069
     2   1 0 1      0.013356      0.000000      0.009348
     2   0 2 0     -9.626222      0.000000    138.859369
     2   0 1 1     -0.163526      0.000000     -0.194661
     2   0 0 2     -8.802504      0.000000      4.136504


------------------------------------------------------------
EAF file 0: "./input_dimer.aoints.0" size=6291456 bytes
------------------------------------------------------------
               write      read    awrite     aread      wait
               -----      ----    ------     -----      ----
     calls:       12         3         0         9         9
   data(b): 6.29e+06  1.57e+06  0.00e+00  4.72e+06
   time(s): 0.00e+00  0.00e+00  0.00e+00  0.00e+00  0.00e+00
rate(mb/s): 0.00e+00  0.00e+00
------------------------------------------------------------


 Parallel integral file used     131 records with       0 large values



                   Four-Index Transformation
                   -------------------------
          Number of basis functions:             82
          Number of shells:                      38
          Number of occupied orbitals:           10
          Number of occ. correlated orbitals:    10
          Block length:                          16
          Superscript MO index range:      1 -   10
          Subscript MO index range:        1 -   82
          MO coefficients read from:  ./input_dimer.movecs     
          Number of operator matrices in core:  110
          Half-transformed integrals produced

     Pass:    1     Index range:    1  -   10     Time:      2.03
 ------------------------------------------
 MP2 Energy (coupled cluster initial guess)
 ------------------------------------------
 Reference energy:           -152.085880500513838
 MP2 Corr. energy:             -0.447814798684652
 Total MP2 energy:           -152.533695299198484


 ****************************************************************************
              the segmented parallel ccsd program:    8 nodes
 ****************************************************************************




 level of theory    ccsd(t)
 number of core         0
 number of occupied    10
 number of virtual     72
 number of deleted      0
 total functions       82
 number of shells      38
 basis label          566



   ***** ccsd parameters *****
   iprt   =     0
   convi  =  0.100E-05
   maxit  =    20
   mxvec  =     5
 memory           1073724060
  Using  1 OpenMP thread(s) in CCSD
  avail0,avail1,avail0-avail1                 16587                16587                    0
  avail0,avail1,avail0-avail1                 16587                16593                   -6
  avail0,avail1,avail0-avail1                 16587                16603                  -16
  avail0,avail1,avail0-avail1                 16587                16603                  -16
  Restarting from old vector in ./input_dimer.t2


-------------------------------------------------------------------------
 iter     correlation     delta       rms       T2     Non-T2      Main
             energy      energy      error      ampl     ampl      Block
                                                time     time      time
-------------------------------------------------------------------------
   1     -0.4503090855 -4.503D-01  2.140D-01     3.35     0.00     2.75
   2     -0.4533846457 -3.076D-03  3.134D-01     1.25     0.00     0.85
   3     -0.4603264749 -6.942D-03  4.262D-02     0.98     0.01     0.65
   4     -0.4616321481 -1.306D-03  3.218D-02     1.15     0.00     0.78
   5     -0.4621760265 -5.439D-04  4.239D-03     1.12     0.00     0.66
   6     -0.4623667101 -1.907D-04  1.550D-03     0.99     0.00     0.72
   7     -0.4623716423 -4.932D-06  3.835D-04     0.98     0.00     0.71
   8     -0.4623662282  5.414D-06  4.988D-05     1.06     0.00     0.77
   9     -0.4623671829 -9.546D-07  2.900D-05     0.87     0.00     0.61
  10     -0.4623650557  2.127D-06  1.831D-05     0.92     0.00     0.66
  11     -0.4623652558 -2.001D-07  1.579D-05     1.09     0.00     0.63
  12     -0.4623652554  3.536D-10  1.088D-05     1.17     0.00     0.85
  13     -0.4623653184 -6.296D-08  4.673D-06     1.35     0.01     0.90
  14     -0.4623653620 -4.362D-08  3.679D-07     1.18     0.00     0.71
                  *************converged*************
-------------------------------------------------------------------------

 -----------
 CCSD Energy
 -----------
 Reference energy:            -152.085880500513838
 CCSD corr. energy:             -0.462365362031760
 Total CCSD energy:           -152.548245862545599


 --------------------------------
 Spin Component Scaled (SCS) CCSD
 --------------------------------
 Same spin contribution:                 -0.101995759301677
 Same spin scaling factor:                1.130000000000000
 Opposite spin contribution:             -0.360369602730083
 Opposite spin scaling fact.:             1.270000000000000
 SCS-CCSD correlation energy:            -0.572924603478100
 Total SCS-CCSD energy:                -152.658805103991938
 memory           1073724060


*********triples calculation*********

nkpass=    1; nvpass=    1; memdrv=         271656; memtrn=         680678; memavail=     1073723324
 memory available/node                     1073723324
 total number of virtual orbitals        72
 number of virtuals per integral pass    72
 number of integral evaluations           1
 number of occupied per triples pass     10
 number of triples passes                 1

 commencing integral evaluation        1 at          21.57
  symmetry use  F
task         2 out of       741 done   0%  at       0.1 secs
task        43 out of       741 done   5%  at       0.4 secs
task        76 out of       741 done  10%  at       0.6 secs
task       114 out of       741 done  15%  at       0.7 secs
task       151 out of       741 done  20%  at       0.9 secs
task       187 out of       741 done  25%  at       1.0 secs
task       223 out of       741 done  30%  at       1.1 secs
task       269 out of       741 done  36%  at       1.3 secs
task       303 out of       741 done  40%  at       1.4 secs
task       343 out of       741 done  46%  at       1.6 secs
task       376 out of       741 done  50%  at       1.7 secs
task       409 out of       741 done  55%  at       1.7 secs
task       453 out of       741 done  61%  at       1.8 secs
task       482 out of       741 done  65%  at       1.9 secs
task       522 out of       741 done  70%  at       2.0 secs
task       563 out of       741 done  75%  at       2.1 secs
task       598 out of       741 done  80%  at       2.1 secs
task       637 out of       741 done  85%  at       2.2 secs
task       672 out of       741 done  90%  at       2.3 secs
task       706 out of       741 done  95%  at       2.4 secs
 commencing triples evaluation - blocking       1
 ccsd(t): done        1 out of       72 progress:    1.4%
 ccsd(t): done        2 out of       72 progress:    2.8%
 ccsd(t): done        3 out of       72 progress:    4.2%
 ccsd(t): done        4 out of       72 progress:    5.6%
 ccsd(t): done        5 out of       72 progress:    6.9%
 ccsd(t): done        6 out of       72 progress:    8.3%
 ccsd(t): done        7 out of       72 progress:    9.7%
 ccsd(t): done        8 out of       72 progress:   11.1%
 ccsd(t): done        9 out of       72 progress:   12.5%
 ccsd(t): done       10 out of       72 progress:   13.9%
 ccsd(t): done       11 out of       72 progress:   15.3%
 ccsd(t): done       12 out of       72 progress:   16.7%
 ccsd(t): done       13 out of       72 progress:   18.1%
 ccsd(t): done       14 out of       72 progress:   19.4%
 ccsd(t): done       15 out of       72 progress:   20.8%
 ccsd(t): done       16 out of       72 progress:   22.2%
 ccsd(t): done       17 out of       72 progress:   23.6%
 ccsd(t): done       18 out of       72 progress:   25.0%
 ccsd(t): done       19 out of       72 progress:   26.4%
 ccsd(t): done       20 out of       72 progress:   27.8%
 ccsd(t): done       21 out of       72 progress:   29.2%
 ccsd(t): done       22 out of       72 progress:   30.6%
 ccsd(t): done       23 out of       72 progress:   31.9%
 ccsd(t): done       24 out of       72 progress:   33.3%
 ccsd(t): done       25 out of       72 progress:   34.7%
 ccsd(t): done       26 out of       72 progress:   36.1%
 ccsd(t): done       27 out of       72 progress:   37.5%
 ccsd(t): done       28 out of       72 progress:   38.9%
 ccsd(t): done       29 out of       72 progress:   40.3%
 ccsd(t): done       30 out of       72 progress:   41.7%
 ccsd(t): done       31 out of       72 progress:   43.1%
 ccsd(t): done       32 out of       72 progress:   44.4%
 ccsd(t): done       33 out of       72 progress:   45.8%
 ccsd(t): done       34 out of       72 progress:   47.2%
 ccsd(t): done       35 out of       72 progress:   48.6%
 ccsd(t): done       36 out of       72 progress:   50.0%
 ccsd(t): done       37 out of       72 progress:   51.4%
 ccsd(t): done       38 out of       72 progress:   52.8%
 ccsd(t): done       39 out of       72 progress:   54.2%
 ccsd(t): done       40 out of       72 progress:   55.6%
 ccsd(t): done       41 out of       72 progress:   56.9%
 ccsd(t): done       42 out of       72 progress:   58.3%
 ccsd(t): done       43 out of       72 progress:   59.7%
 ccsd(t): done       44 out of       72 progress:   61.1%
 ccsd(t): done       45 out of       72 progress:   62.5%
 ccsd(t): done       46 out of       72 progress:   63.9%
 ccsd(t): done       47 out of       72 progress:   65.3%
 ccsd(t): done       48 out of       72 progress:   66.7%
 ccsd(t): done       49 out of       72 progress:   68.1%
 ccsd(t): done       50 out of       72 progress:   69.4%
 ccsd(t): done       51 out of       72 progress:   70.8%
 ccsd(t): done       52 out of       72 progress:   72.2%
 ccsd(t): done       53 out of       72 progress:   73.6%
 ccsd(t): done       54 out of       72 progress:   75.0%
 ccsd(t): done       55 out of       72 progress:   76.4%
 ccsd(t): done       56 out of       72 progress:   77.8%
 ccsd(t): done       57 out of       72 progress:   79.2%
 ccsd(t): done       58 out of       72 progress:   80.6%
 ccsd(t): done       59 out of       72 progress:   81.9%
 ccsd(t): done       60 out of       72 progress:   83.3%
 ccsd(t): done       61 out of       72 progress:   84.7%
 ccsd(t): done       62 out of       72 progress:   86.1%
 ccsd(t): done       63 out of       72 progress:   87.5%
 ccsd(t): done       64 out of       72 progress:   88.9%
 ccsd(t): done       65 out of       72 progress:   90.3%
 ccsd(t): done       66 out of       72 progress:   91.7%
 ccsd(t): done       67 out of       72 progress:   93.1%
 ccsd(t): done       68 out of       72 progress:   94.4%
 ccsd(t): done       69 out of       72 progress:   95.8%
 ccsd(t): done       70 out of       72 progress:   97.2%
 ccsd(t): done       71 out of       72 progress:   98.6%
 ccsd(t): done       72 out of       72 progress:  100.0%
 Time for integral evaluation pass     1        2.54
 Time for triples evaluation pass      1        6.76

 pseudo-e(mp4)  -0.11902827734749E-01
 pseudo-e(mp5)   0.82247026850090E-03
        e(t)    -0.11080357466248E-01

 --------------
 CCSD(T) Energy
 --------------
 Reference energy:                    -152.085880500513838

 CCSD corr. energy:                     -0.462365362031760
 T(CCSD) corr. energy:                  -0.011902827734749
 Total CCSD+T(CCSD) energy:           -152.560148690280357

 CCSD corr. energy:                     -0.462365362031760
 (T) corr. energy:                      -0.011080357466248
 Total CCSD(T) energy:                -152.559326220011855

 routine      calls  cpu(0)   cpu-min  cpu-ave  cpu-max   i/o 
 aoccsd          1     0.16     0.16     0.16     0.16    0.00
 iterdrv         1     0.15     0.15     0.15     0.16    0.00
 pampt          14     0.47     0.46     0.47     0.47    0.00
 t2pm           14     1.02     1.02     1.02     1.03    0.00
 sxy            14     1.55     0.38     1.16     1.55    0.00
 ints        68860     0.63     0.60     0.64     0.68    0.00
 f_write       186     0.07     0.07     0.08     0.10    0.00
 t2eri        1302     2.95     2.64     2.78     2.95    0.00
 idx2         1302     6.84     6.84     7.39     8.26    0.00
 idx34          14     0.05     0.05     0.06     0.07    0.00
 ht2pm          14     0.40     0.40     0.40     0.40    0.00
 itm            14     3.29     3.29     3.29     3.29    0.00
 pdiis          14     0.02     0.01     0.02     0.02    0.00
 r_read       1209     0.17     0.13     0.16     0.17    0.00
 triples         1     0.01     0.01     0.01     0.01    0.00
 rdtrpo          1     0.02     0.02     0.02     0.02    0.00
 trpmos          1     2.54     2.54     2.54     2.54    0.00
 trpdrv          1     3.72     3.65     3.79     3.96    0.00
 dovvv       10230     2.09     1.89     2.03     2.12    0.00
 doooo       10230     0.36     0.33     0.35     0.36    0.00
 tengy        9300     0.58     0.56     0.58     0.62    0.00
 Total                27.10    27.09    27.10    27.10    0.00

 Task  times  cpu:       30.9s     wall:       30.9s


                                NWChem Input Module
                                -------------------


 Summary of allocated global arrays
-----------------------------------
  No active global arrays


MA_summarize_allocated_blocks: starting scan ...
MA_summarize_allocated_blocks: scan completed: 0 heap blocks, 0 stack blocks
MA usage statistics:

	allocation statistics:
					      heap	     stack
					      ----	     -----
	current number of blocks	         0	         0
	maximum number of blocks	        17	        41
	current total bytes		         0	         0
	maximum total bytes		  13193840	7731416168
	maximum total K-bytes		     13194	   7731417
	maximum total M-bytes		        14	      7732


                                     CITATION
                                     --------
                Please cite the following reference when publishing
                           results obtained with NWChem:

          E. Apra, E. J. Bylaska, W. A. de Jong, N. Govind, K. Kowalski,
       T. P. Straatsma, M. Valiev, H. J. J. van Dam, Y. Alexeev, J. Anchell,
       V. Anisimov, F. W. Aquino, R. Atta-Fynn, J. Autschbach, N. P. Bauman,
     J. C. Becca, D. E. Bernholdt, K. Bhaskaran-Nair, S. Bogatko, P. Borowski,
         J. Boschen, J. Brabec, A. Bruner, E. Cauet, Y. Chen, G. N. Chuev,
      C. J. Cramer, J. Daily, M. J. O. Deegan, T. H. Dunning Jr., M. Dupuis,
   K. G. Dyall, G. I. Fann, S. A. Fischer, A. Fonari, H. Fruchtl, L. Gagliardi,
      J. Garza, N. Gawande, S. Ghosh, K. Glaesemann, A. W. Gotz, J. Hammond,
       V. Helms, E. D. Hermes, K. Hirao, S. Hirata, M. Jacquelin, L. Jensen,
   B. G. Johnson, H. Jonsson, R. A. Kendall, M. Klemm, R. Kobayashi, V. Konkov,
      S. Krishnamoorthy, M. Krishnan, Z. Lin, R. D. Lins, R. J. Littlefield,
      A. J. Logsdail, K. Lopata, W. Ma, A. V. Marenich, J. Martin del Campo,
   D. Mejia-Rodriguez, J. E. Moore, J. M. Mullin, T. Nakajima, D. R. Nascimento,
    J. A. Nichols, P. J. Nichols, J. Nieplocha, A. Otero-de-la-Roza, B. Palmer,
    A. Panyala, T. Pirojsirikul, B. Peng, R. Peverati, J. Pittner, L. Pollack,
   R. M. Richard, P. Sadayappan, G. C. Schatz, W. A. Shelton, D. W. Silverstein,
   D. M. A. Smith, T. A. Soares, D. Song, M. Swart, H. L. Taylor, G. S. Thomas,
            V. Tipparaju, D. G. Truhlar, K. Tsemekhman, T. Van Voorhis,
      A. Vazquez-Mayagoitia, P. Verma, O. Villa, A. Vishnu, K. D. Vogiatzis,
        D. Wang, J. H. Weare, M. J. Williamson, T. L. Windus, K. Wolinski,
        A. T. Wong, Q. Wu, C. Yang, Q. Yu, M. Zacharias, Z. Zhang, Y. Zhao,
                                and R. J. Harrison
                        "NWChem: Past, present, and future
                         J. Chem. Phys. 152, 184102 (2020)
                               doi:10.1063/5.0004997

                                      AUTHORS
                                      -------
  E. Apra, E. J. Bylaska, N. Govind, K. Kowalski, M. Valiev, D. Mejia-Rodriguez,
       A. Kunitsa, N. P. Bauman, A. Panyala, W. A. de Jong, T. P. Straatsma,
   H. J. J. van Dam, D. Wang, T. L. Windus, J. Hammond, J. Autschbach, A. Woods,
    K. Bhaskaran-Nair, J. Brabec, K. Lopata, S. A. Fischer, S. Krishnamoorthy,
     M. Jacquelin, W. Ma, M. Klemm, O. Villa, Y. Chen, V. Anisimov, F. Aquino,
     S. Hirata, M. T. Hackler, E. Hermes, L. Jensen, J. E. Moore, J. C. Becca,
      V. Konjkov, T. Risthaus, M. Malagoli, A. Marenich, A. Otero-de-la-Roza,
        J. Mullin, P. Nichols, R. Peverati, J. Pittner, Y. Zhao, P.-D. Fan,
        A. Fonari, M. J. Williamson, R. J. Harrison, J. R. Rehr, M. Dupuis,
     D. Silverstein, D. M. A. Smith, J. Nieplocha, V. Tipparaju, M. Krishnan,
     B. E. Van Kuiken, A. Vazquez-Mayagoitia, M. Swart, Q. Wu, T. Van Voorhis,
     A. A. Auer, M. Nooijen, L. D. Crosby, E. Brown, G. Cisneros, G. I. Fann,
   H. Fruchtl, J. Garza, K. Hirao, R. A. Kendall, J. A. Nichols, K. Tsemekhman,
    K. Wolinski, J. Anchell, D. E. Bernholdt, P. Borowski, T. Clark, D. Clerc,
   H. Dachsel, M. J. O. Deegan, K. Dyall, D. Elwood, E. Glendening, M. Gutowski,
   A. C. Hess, J. Jaffe, B. G. Johnson, J. Ju, R. Kobayashi, R. Kutteh, Z. Lin,
   R. Littlefield, X. Long, B. Meng, T. Nakajima, S. Niu, L. Pollack, M. Rosing,
   K. Glaesemann, G. Sandrone, M. Stave, H. Taylor, G. Thomas, J. H. van Lenthe,
                               A. T. Wong, Z. Zhang.

 Total times  cpu:       30.9s     wall:       30.9s
