 argument  1 = /var/folders/v1/k9l8hql13n1gcrjl_yh_gs5m0000gn/T/tmpubu6oahw/input_B_AB.txt
                                         
                                         


             Northwest Computational Chemistry Package (NWChem) 7.2.3
             --------------------------------------------------------


                    Environmental Molecular Sciences Laboratory
                       Pacific Northwest National Laboratory
                                Richland, WA 99352

                              Copyright (c) 1994-2022
                       Pacific Northwest National Laboratory
                            Battelle Memorial Institute

             NWChem is an open-source computational chemistry package
                        distributed under the terms of the
                      Educational Community License (ECL) 2.0
             A copy of the license is included with this distribution
                              in the LICENSE.TXT file

                                  ACKNOWLEDGMENT
                                  --------------

            This software and its documentation were developed at the
            EMSL at Pacific Northwest National Laboratory, a multiprogram
            national laboratory, operated for the U.S. Department of Energy
            by Battelle under Contract Number DE-AC05-76RL01830. Support
            for this work was provided by the Department of Energy Office
            of Biological and Environmental Research, Office of Basic
            Energy Sciences, and the Office of Advanced Scientific Computing.


           Job information
           ---------------

    hostname        = visitor-wireless1-147-155-221-109.ameslab.gov
    program         = nwchem
    date            = Wed Jul  2 15:35:44 2025

    compiled        = Thu_Dec_26_16:03:44_2024
    source          = /private/tmp/nwchem-20241226-24280-orrtsi/nwchem-7.2.3
    nwchem branch   = 7.2.3
    nwchem revision = d690e065
    ga revision     = 5.8.0
    use scalapack   = T
    input           = /var/folders/v1/k9l8hql13n1gcrjl_yh_gs5m0000gn/T/tmpubu6oahw/input_B_AB.txt
    prefix          = input_B_AB.
    data base       = ./input_B_AB.db
    status          = restart
    nproc           =        8
    time left       =     -1s



           Memory information
           ------------------

    heap     =  536870908 doubles =   4096.0 Mbytes
    stack    =  536870913 doubles =   4096.0 Mbytes
    global   = 1073741824 doubles =   8192.0 Mbytes (distinct from heap & stack)
    total    = 2147483645 doubles =  16384.0 Mbytes
    verify   = yes
    hardfail = no 


           Directory information
           ---------------------

  0 permanent = .
  0 scratch   = .


           Previous task information
           -------------------------

    Theory    = ccsd(t)                         
    Operation = energy                        
    Status    = ok                            
    Qmmm      = F
    Ignore    = F


           Geometries in the database
           --------------------------

       Name                              Natoms  Last Modified
       --------------------------------  ------  ------------------------
    1  geometry                               6  Wed Jul  2 15:34:38 2025  

  The geometry named "geometry" is the default for restart



           Basis sets in the database
           --------------------------

       Name                              Natoms  Last Modified
        --------------------------------  ------  ------------------------
    1  ao basis                               4  Wed Jul  2 15:34:38 2025  

  The basis set named "ao basis" is the default AO basis for restart




                                NWChem Input Module
                                -------------------



 Scaling coordinates for geometry "geometry" by  1.889725989
 (inverse scale =  0.529177249)

 CS  symmetry detected


                             Geometry "geometry" -> ""
                             -------------------------

 Output coordinates in angstroms (scale by  1.889725989 to convert to a.u.)

  No.       Tag          Charge          X              Y              Z
 ---- ---------------- ---------- -------------- -------------- --------------
    1 bqO                  0.0000    -0.42060192    -2.72200881     0.00000000
    2 bqH                  0.0000     0.17208007    -2.77307479    -0.76110713
    3 bqH                  0.0000     0.17208007    -2.77307479     0.76110713
    4 O                    8.0000     0.11859534    -0.00944451     0.00000000
    5 H                    1.0000    -0.53482230    -0.72092875     0.00000000
    6 H                    1.0000    -0.41394045     0.79648485     0.00000000

      Atomic Mass 
      ----------- 

      O                 15.994910
      H                  1.007825


 Effective nuclear repulsion energy (a.u.)       9.1125484967

            Nuclear Dipole moment (a.u.) 
            ----------------------------
        X                 Y               Z
 ---------------- ---------------- ----------------
     0.0000000000     0.0000000000     0.0000000000

      Symmetry information
      --------------------

 Group name             Cs        
 Group number              2
 Group order               2
 No. of unique centers     5

      Symmetry unique atoms

     1    2    4    5    6


            XYZ format geometry
            -------------------
     6
 geometry
 bqO                  -0.42060192    -2.72200881     0.00000000
 bqH                   0.17208007    -2.77307479    -0.76110713
 bqH                   0.17208007    -2.77307479     0.76110713
 O                     0.11859534    -0.00944451     0.00000000
 H                    -0.53482230    -0.72092875     0.00000000
 H                    -0.41394045     0.79648485     0.00000000

 ==============================================================================
                                internuclear distances
 ------------------------------------------------------------------------------
       center one      |      center two      | atomic units |  angstroms
 ------------------------------------------------------------------------------
    2 bqH              |   1 bqO              |     1.82548  |     0.96600
    3 bqH              |   1 bqO              |     1.82548  |     0.96600
    3 bqH              |   2 bqH              |     2.87657  |     1.52221
    4 O                |   1 bqO              |     5.22629  |     2.76564
    4 O                |   2 bqH              |     5.41788  |     2.86702
    4 O                |   3 bqH              |     5.41788  |     2.86702
    5 H                |   1 bqO              |     3.78765  |     2.00434
    5 H                |   2 bqH              |     4.34649  |     2.30006
    5 H                |   3 bqH              |     4.34649  |     2.30006
    5 H                |   4 O                |     1.82548  |     0.96600
    6 H                |   4 O                |     1.82544  |     0.96598
 ------------------------------------------------------------------------------
                         number of included internuclear distances:         11
 ==============================================================================



 ==============================================================================
                                 internuclear angles
 ------------------------------------------------------------------------------
        center 1       |       center 2       |       center 3       |  degrees
 ------------------------------------------------------------------------------
    2 bqH              |   1 bqO              |   3 bqH              |   103.98
    2 bqH              |   1 bqO              |   4 O                |    86.11
    2 bqH              |   1 bqO              |   5 H                |    95.03
    3 bqH              |   1 bqO              |   4 O                |    86.11
    3 bqH              |   1 bqO              |   5 H                |    95.03
    1 bqO              |   5 H                |   4 O                |   134.17
    2 bqH              |   1 bqO              |   3 bqH              |   103.98
    2 bqH              |   1 bqO              |   4 O                |    86.11
    2 bqH              |   1 bqO              |   5 H                |    95.03
    2 bqH              |   4 O                |   3 bqH              |    30.79
    2 bqH              |   5 H                |   3 bqH              |    38.65
    2 bqH              |   5 H                |   4 O                |   116.70
    3 bqH              |   1 bqO              |   2 bqH              |   103.98
    3 bqH              |   1 bqO              |   4 O                |    86.11
    3 bqH              |   1 bqO              |   5 H                |    95.03
    3 bqH              |   4 O                |   2 bqH              |    30.79
    3 bqH              |   5 H                |   2 bqH              |    38.65
    3 bqH              |   5 H                |   4 O                |   116.70
    4 O                |   1 bqO              |   2 bqH              |    86.11
    4 O                |   1 bqO              |   3 bqH              |    86.11
    4 O                |   5 H                |   1 bqO              |   134.17
    1 bqO              |   4 O                |   6 H                |   135.30
    2 bqH              |   4 O                |   3 bqH              |    30.79
    4 O                |   5 H                |   2 bqH              |   116.70
    2 bqH              |   4 O                |   6 H                |   144.54
    4 O                |   5 H                |   3 bqH              |   116.70
    3 bqH              |   4 O                |   6 H                |   144.54
    5 H                |   4 O                |   6 H                |   103.98
    5 H                |   1 bqO              |   2 bqH              |    95.03
    5 H                |   1 bqO              |   3 bqH              |    95.03
    1 bqO              |   5 H                |   4 O                |   134.17
    2 bqH              |   5 H                |   3 bqH              |    38.65
    2 bqH              |   5 H                |   4 O                |   116.70
    3 bqH              |   5 H                |   4 O                |   116.70
 ------------------------------------------------------------------------------
                            number of included internuclear angles:         34
 ==============================================================================



  library name resolved from: environment
  library file name is: </opt/homebrew/Caskroom/mambaforge/base/envs/ames/share/nwchem/libraries/>
  
                      Basis "ao basis" -> "" (spherical)
                      -----
  bqO
  ---
            Exponent  Coefficients 
       -------------- ---------------------------------------------------------
  1 S  1.17200000E+04  0.000710
  1 S  1.75900000E+03  0.005470
  1 S  4.00800000E+02  0.027837
  1 S  1.13700000E+02  0.104800
  1 S  3.70300000E+01  0.283062
  1 S  1.32700000E+01  0.448719
  1 S  5.02500000E+00  0.270952
  1 S  1.01300000E+00  0.015458

  2 S  1.17200000E+04 -0.000160
  2 S  1.75900000E+03 -0.001263
  2 S  4.00800000E+02 -0.006267
  2 S  1.13700000E+02 -0.025716
  2 S  3.70300000E+01 -0.070924
  2 S  1.32700000E+01 -0.165411
  2 S  5.02500000E+00 -0.116955
  2 S  1.01300000E+00  0.557368

  3 S  3.02300000E-01  1.000000

  4 S  7.89600000E-02  1.000000

  5 P  1.77000000E+01  0.043018
  5 P  3.85400000E+00  0.228913
  5 P  1.04600000E+00  0.508728

  6 P  2.75300000E-01  1.000000

  7 P  6.85600000E-02  1.000000

  8 D  1.18500000E+00  1.000000

  9 D  3.32000000E-01  1.000000

  bqH
  ---
            Exponent  Coefficients 
       -------------- ---------------------------------------------------------
  1 S  1.30100000E+01  0.019685
  1 S  1.96200000E+00  0.137977
  1 S  4.44600000E-01  0.478148

  2 S  1.22000000E-01  1.000000

  3 S  2.97400000E-02  1.000000

  4 P  7.27000000E-01  1.000000

  5 P  1.41000000E-01  1.000000

  O (Oxygen)
  ----------
            Exponent  Coefficients 
       -------------- ---------------------------------------------------------
  1 S  1.17200000E+04  0.000710
  1 S  1.75900000E+03  0.005470
  1 S  4.00800000E+02  0.027837
  1 S  1.13700000E+02  0.104800
  1 S  3.70300000E+01  0.283062
  1 S  1.32700000E+01  0.448719
  1 S  5.02500000E+00  0.270952
  1 S  1.01300000E+00  0.015458

  2 S  1.17200000E+04 -0.000160
  2 S  1.75900000E+03 -0.001263
  2 S  4.00800000E+02 -0.006267
  2 S  1.13700000E+02 -0.025716
  2 S  3.70300000E+01 -0.070924
  2 S  1.32700000E+01 -0.165411
  2 S  5.02500000E+00 -0.116955
  2 S  1.01300000E+00  0.557368

  3 S  3.02300000E-01  1.000000

  4 S  7.89600000E-02  1.000000

  5 P  1.77000000E+01  0.043018
  5 P  3.85400000E+00  0.228913
  5 P  1.04600000E+00  0.508728

  6 P  2.75300000E-01  1.000000

  7 P  6.85600000E-02  1.000000

  8 D  1.18500000E+00  1.000000

  9 D  3.32000000E-01  1.000000

  H (Hydrogen)
  ------------
            Exponent  Coefficients 
       -------------- ---------------------------------------------------------
  1 S  1.30100000E+01  0.019685
  1 S  1.96200000E+00  0.137977
  1 S  4.44600000E-01  0.478148

  2 S  1.22000000E-01  1.000000

  3 S  2.97400000E-02  1.000000

  4 P  7.27000000E-01  1.000000

  5 P  1.41000000E-01  1.000000



 Summary of "ao basis" -> "" (spherical)
 ------------------------------------------------------------------------------
       Tag                 Description            Shells   Functions and Types
 ---------------- ------------------------------  ------  ---------------------
 bqO                      aug-cc-pvdz                9       23   4s3p2d
 bqH                      aug-cc-pvdz                5        9   3s2p
 O                        aug-cc-pvdz                9       23   4s3p2d
 H                        aug-cc-pvdz                5        9   3s2p


                                 NWChem SCF Module
                                 -----------------



  ao basis        = "ao basis"
  functions       =    82
  atoms           =     6
  closed shells   =     5
  open shells     =     0
  charge          =   0.00
  wavefunction    = RHF 
  input vectors   = ./input_B_AB.movecs
  output vectors  = ./input_B_AB.movecs
  use symmetry    = T
  symmetry adapt  = T


 Summary of "ao basis" -> "ao basis" (spherical)
 ------------------------------------------------------------------------------
       Tag                 Description            Shells   Functions and Types
 ---------------- ------------------------------  ------  ---------------------
 bqO                      aug-cc-pvdz                9       23   4s3p2d
 bqH                      aug-cc-pvdz                5        9   3s2p
 O                        aug-cc-pvdz                9       23   4s3p2d
 H                        aug-cc-pvdz                5        9   3s2p


      Symmetry analysis of basis
      --------------------------

        a'         55
        a"         27


 Forming initial guess at       0.9s


 Loading old vectors from job with title :




      Symmetry analysis of molecular orbitals - initial
      -------------------------------------------------

  Numbering of irreducible representations: 

     1 a'          2 a"      

  Orbital symmetries:

     1 a'          2 a'          3 a'          4 a'          5 a"      
     6 a'          7 a'          8 a"          9 a'         10 a'      
    11 a'         12 a"         13 a'         14 a'         15 a"      


 Starting SCF solution at       0.9s



 ----------------------------------------------
         Quadratically convergent ROHF

 Convergence threshold     :          1.000E-06
 Maximum no. of iterations :           30
 Final Fock-matrix accuracy:          1.000E-08
 ----------------------------------------------


 Integral file          = ./input_B_AB.aoints.0
 Record size in doubles =  65536        No. of integs per rec  =  43688
 Max. records in memory =     17        Max. records in file   =   3930
 No. of bits per label  =      8        No. of bits per value  =     64


 #quartets = 1.831D+05 #integrals = 2.981D+06 #direct =  0.0% #cached =100.0%


File balance: exchanges=    15  moved=     8  time=   0.0


              iter       energy          gnorm     gmax       time
             ----- ------------------- --------- --------- --------
                 1      -76.0386005051  1.84D-01  6.15D-02      1.2
                 2      -76.0409517338  1.67D-02  3.99D-03      1.3
                 3      -76.0409729172  7.61D-05  1.91D-05      1.8
                 4      -76.0409729178  4.56D-08  1.22D-08      2.0


       Final RHF  results 
       ------------------ 

         Total SCF energy =    -76.040972917803
      One-electron energy =   -122.829756918400
      Two-electron energy =     37.676235503880
 Nuclear repulsion energy =      9.112548496717

        Time for solution =      1.2s



       Symmetry analysis of molecular orbitals - final
       -----------------------------------------------

  Numbering of irreducible representations: 

     1 a'          2 a"      

  Orbital symmetries:

     1 a'          2 a'          3 a'          4 a'          5 a"      
     6 a'          7 a'          8 a"          9 a'         10 a'      
    11 a'         12 a'         13 a"         14 a'         15 a"      

             Final eigenvalues
             -----------------

              1      
    1  -20.5788
    2   -1.3526
    3   -0.7135
    4   -0.5849
    5   -0.5088
    6    0.0307
    7    0.0508
    8    0.0661
    9    0.0745
   10    0.1482
   11    0.1570
   12    0.1970
   13    0.1990
   14    0.2058
   15    0.2204

                       ROHF Final Molecular Orbital Analysis
                       -------------------------------------

 Vector    2  Occ=2.000000D+00  E=-1.352578D+00  Symmetry=a'
              MO Center= -4.9D-02,  3.9D-03,  3.6D-17, r^2= 5.0D-01
   Bfn.  Coefficient  Atom+Function         Bfn.  Coefficient  Atom+Function  
  ----- ------------  ---------------      ----- ------------  ---------------
    43      0.448006  4 O  s                 44      0.387114  4 O  s          
    65      0.203779  5 H  s                 74      0.204002  6 H  s          

 Vector    3  Occ=2.000000D+00  E=-7.134612D-01  Symmetry=a'
              MO Center= -9.4D-02,  7.5D-03, -1.9D-18, r^2= 7.7D-01
   Bfn.  Coefficient  Atom+Function         Bfn.  Coefficient  Atom+Function  
  ----- ------------  ---------------      ----- ------------  ---------------
    47      0.497263  4 O  py                65     -0.347242  5 H  s          
    74      0.346879  6 H  s                 50      0.197341  4 O  py         

 Vector    4  Occ=2.000000D+00  E=-5.849301D-01  Symmetry=a'
              MO Center=  1.5D-01, -1.2D-02, -4.3D-16, r^2= 7.3D-01
   Bfn.  Coefficient  Atom+Function         Bfn.  Coefficient  Atom+Function  
  ----- ------------  ---------------      ----- ------------  ---------------
    46      0.545958  4 O  px                49      0.321428  4 O  px         
    44      0.314530  4 O  s                 65     -0.213124  5 H  s          
    74     -0.213019  6 H  s                 43      0.152230  4 O  s          

 Vector    5  Occ=2.000000D+00  E=-5.088279D-01  Symmetry=a"
              MO Center=  8.0D-02, -6.3D-03,  1.0D-16, r^2= 6.8D-01
   Bfn.  Coefficient  Atom+Function         Bfn.  Coefficient  Atom+Function  
  ----- ------------  ---------------      ----- ------------  ---------------
    48      0.628732  4 O  pz                51      0.451099  4 O  pz         

 Vector    6  Occ=0.000000D+00  E= 3.070204D-02  Symmetry=a'
              MO Center= -4.8D-01, -1.0D+00, -6.4D-17, r^2= 1.4D+01
   Bfn.  Coefficient  Atom+Function         Bfn.  Coefficient  Atom+Function  
  ----- ------------  ---------------      ----- ------------  ---------------
     4      1.223898  1 bq s                 76     -1.074102  6 H  s          
    45      0.924049  4 O  s                 75     -0.508625  6 H  s          
    26     -0.501980  2 bq s                 35     -0.501980  3 bq s          
    25     -0.429080  2 bq s                 34     -0.429080  3 bq s          
    11      0.398518  1 bq px                53      0.265990  4 O  py         

 Vector    7  Occ=0.000000D+00  E= 5.083236D-02  Symmetry=a'
              MO Center= -3.5D-01, -6.5D-01, -7.6D-17, r^2= 1.9D+01
   Bfn.  Coefficient  Atom+Function         Bfn.  Coefficient  Atom+Function  
  ----- ------------  ---------------      ----- ------------  ---------------
    76      1.811253  6 H  s                 45     -1.041170  4 O  s          
     4      0.938017  1 bq s                 26     -0.728562  2 bq s          
    35     -0.728562  3 bq s                 75      0.692435  6 H  s          
    53     -0.532320  4 O  py                25     -0.325014  2 bq s          
    34     -0.325014  3 bq s                 67     -0.298593  5 H  s          

 Vector    8  Occ=0.000000D+00  E= 6.605669D-02  Symmetry=a"
              MO Center=  4.3D-01, -3.0D+00, -6.0D-16, r^2= 1.5D+01
   Bfn.  Coefficient  Atom+Function         Bfn.  Coefficient  Atom+Function  
  ----- ------------  ---------------      ----- ------------  ---------------
    26      2.936708  2 bq s                 35     -2.936708  3 bq s          
    13      0.656224  1 bq pz                25      0.486408  2 bq s          
    34     -0.486408  3 bq s                 54      0.154895  4 O  pz         

 Vector    9  Occ=0.000000D+00  E= 7.454632D-02  Symmetry=a'
              MO Center= -9.5D-01, -9.8D-01,  5.6D-18, r^2= 1.8D+01
   Bfn.  Coefficient  Atom+Function         Bfn.  Coefficient  Atom+Function  
  ----- ------------  ---------------      ----- ------------  ---------------
    67      5.798033  5 H  s                 76     -3.319789  6 H  s          
    26     -1.311340  2 bq s                 35     -1.311340  3 bq s          
    45     -1.173963  4 O  s                 66      0.744899  5 H  s          
    53      0.571269  4 O  py                12     -0.413064  1 bq py         
     4      0.330587  1 bq s                 52      0.251695  4 O  px         

 Vector   10  Occ=0.000000D+00  E= 1.482374D-01  Symmetry=a'
              MO Center= -3.1D-01, -2.5D+00,  1.5D-16, r^2= 9.9D+00
   Bfn.  Coefficient  Atom+Function         Bfn.  Coefficient  Atom+Function  
  ----- ------------  ---------------      ----- ------------  ---------------
    67      2.601542  5 H  s                 45     -1.650533  4 O  s          
    76     -1.595397  6 H  s                 11      1.513911  1 bq px         
    12      0.963649  1 bq py                53      0.799470  4 O  py         
     4      0.750773  1 bq s                 25     -0.696776  2 bq s          
    34     -0.696776  3 bq s                 52      0.535712  4 O  px         

 Vector   11  Occ=0.000000D+00  E= 1.569680D-01  Symmetry=a'
              MO Center= -3.8D-01, -2.3D+00,  2.5D-15, r^2= 9.4D+00
   Bfn.  Coefficient  Atom+Function         Bfn.  Coefficient  Atom+Function  
  ----- ------------  ---------------      ----- ------------  ---------------
     4      5.154025  1 bq s                 25     -1.705305  2 bq s          
    34     -1.705305  3 bq s                 11      1.426194  1 bq px         
    45      1.422621  4 O  s                 75     -0.862632  6 H  s          
    26     -0.629774  2 bq s                 35     -0.629774  3 bq s          
    66     -0.620529  5 H  s                 12      0.616639  1 bq py         

 Vector   12  Occ=0.000000D+00  E= 1.969927D-01  Symmetry=a'
              MO Center=  1.4D-01, -1.5D-01, -1.9D-16, r^2= 1.0D+01
   Bfn.  Coefficient  Atom+Function         Bfn.  Coefficient  Atom+Function  
  ----- ------------  ---------------      ----- ------------  ---------------
    45      3.992110  4 O  s                 52     -2.033217  4 O  px         
    66     -1.864412  5 H  s                 75     -1.623566  6 H  s          
    67     -1.204026  5 H  s                  4     -0.931632  1 bq s          
    26      0.569987  2 bq s                 35      0.569987  3 bq s          
    76     -0.450772  6 H  s                 44      0.378979  4 O  s          

 Vector   13  Occ=0.000000D+00  E= 1.990413D-01  Symmetry=a"
              MO Center= -5.5D-01, -2.7D+00, -4.2D-15, r^2= 9.9D+00
   Bfn.  Coefficient  Atom+Function         Bfn.  Coefficient  Atom+Function  
  ----- ------------  ---------------      ----- ------------  ---------------
    13      2.927721  1 bq pz                26      2.677819  2 bq s          
    35     -2.677819  3 bq s                 25      2.074402  2 bq s          
    34     -2.074402  3 bq s                 30     -0.399393  2 bq px         
    39      0.399393  3 bq px                32      0.313591  2 bq pz         
    41      0.313591  3 bq pz                10      0.303556  1 bq pz         

 Vector   14  Occ=0.000000D+00  E= 2.058482D-01  Symmetry=a'
              MO Center= -3.9D-01, -1.5D+00,  1.2D-16, r^2= 1.3D+01
   Bfn.  Coefficient  Atom+Function         Bfn.  Coefficient  Atom+Function  
  ----- ------------  ---------------      ----- ------------  ---------------
    67      2.481587  5 H  s                 75      1.989833  6 H  s          
    12     -1.684358  1 bq py                45     -1.684711  4 O  s          
    53     -1.452625  4 O  py                26     -1.079229  2 bq s          
    35     -1.079229  3 bq s                 11      1.007607  1 bq px         
    66     -0.784809  5 H  s                  4      0.671029  1 bq s          

 Vector   15  Occ=0.000000D+00  E= 2.203707D-01  Symmetry=a"
              MO Center=  3.7D-01, -8.6D-02, -2.7D-16, r^2= 7.9D+00
   Bfn.  Coefficient  Atom+Function         Bfn.  Coefficient  Atom+Function  
  ----- ------------  ---------------      ----- ------------  ---------------
    54      1.604684  4 O  pz                26      0.818936  2 bq s          
    35     -0.818936  3 bq s                 73     -0.357062  5 H  pz         
    51     -0.255871  4 O  pz                82     -0.226759  6 H  pz         
    13     -0.182099  1 bq pz                48     -0.174284  4 O  pz         

 Vector   16  Occ=0.000000D+00  E= 2.305678D-01  Symmetry=a'
              MO Center= -9.0D-02, -7.8D-02,  6.5D-17, r^2= 1.3D+01
   Bfn.  Coefficient  Atom+Function         Bfn.  Coefficient  Atom+Function  
  ----- ------------  ---------------      ----- ------------  ---------------
    67      4.107555  5 H  s                 76     -3.134307  6 H  s          
    53      2.093015  4 O  py                66      1.946718  5 H  s          
    75     -1.810329  6 H  s                 12     -1.424005  1 bq py         
    26     -0.820804  2 bq s                 35     -0.820804  3 bq s          
    45      0.739428  4 O  s                 11      0.621992  1 bq px         

 Vector   17  Occ=0.000000D+00  E= 2.967375D-01  Symmetry=a'
              MO Center=  4.4D-01, -8.0D-01, -1.8D-16, r^2= 9.1D+00
   Bfn.  Coefficient  Atom+Function         Bfn.  Coefficient  Atom+Function  
  ----- ------------  ---------------      ----- ------------  ---------------
     4      3.855793  1 bq s                 45     -3.296729  4 O  s          
    53      3.245972  4 O  py                66      2.655933  5 H  s          
    67      2.296773  5 H  s                 75     -1.738704  6 H  s          
    76     -1.616812  6 H  s                 12      1.565194  1 bq py         
    25     -1.326737  2 bq s                 34     -1.326737  3 bq s          

 Vector   18  Occ=0.000000D+00  E= 3.180330D-01  Symmetry=a'
              MO Center= -5.3D-01, -4.4D-01,  1.3D-16, r^2= 6.5D+00
   Bfn.  Coefficient  Atom+Function         Bfn.  Coefficient  Atom+Function  
  ----- ------------  ---------------      ----- ------------  ---------------
    45      2.325036  4 O  s                 75     -1.499911  6 H  s          
    11      0.872160  1 bq px                71     -0.787013  5 H  px         
     4      0.668045  1 bq s                 81     -0.638087  6 H  py         
    12     -0.604476  1 bq py                25     -0.602374  2 bq s          
    34     -0.602374  3 bq s                 53      0.604076  4 O  py         

 Vector   19  Occ=0.000000D+00  E= 3.598312D-01  Symmetry=a"
              MO Center= -2.8D-03, -2.3D+00, -4.6D-16, r^2= 6.2D+00
   Bfn.  Coefficient  Atom+Function         Bfn.  Coefficient  Atom+Function  
  ----- ------------  ---------------      ----- ------------  ---------------
    13      1.457500  1 bq pz                25      1.330758  2 bq s          
    34     -1.330758  3 bq s                 82      0.560838  6 H  pz         
    32     -0.556243  2 bq pz                41     -0.556243  3 bq pz         
    30      0.248554  2 bq px                39     -0.248554  3 bq px         
    54     -0.234021  4 O  pz                73     -0.169848  5 H  pz         

 Vector   20  Occ=0.000000D+00  E= 3.782859D-01  Symmetry=a'
              MO Center=  3.1D-02, -1.4D+00, -4.9D-16, r^2= 6.3D+00
   Bfn.  Coefficient  Atom+Function         Bfn.  Coefficient  Atom+Function  
  ----- ------------  ---------------      ----- ------------  ---------------
    45      4.444453  4 O  s                  4     -3.756548  1 bq s          
    75     -2.367594  6 H  s                 25      1.974068  2 bq s          
    34      1.974068  3 bq s                 66     -1.569274  5 H  s          
    52     -1.332422  4 O  px                67     -0.813101  5 H  s          
    11     -0.772192  1 bq px                12     -0.644204  1 bq py         

 Vector   21  Occ=0.000000D+00  E= 4.028164D-01  Symmetry=a"
              MO Center= -1.4D-01, -1.2D+00, -3.0D-17, r^2= 7.2D+00
   Bfn.  Coefficient  Atom+Function         Bfn.  Coefficient  Atom+Function  
  ----- ------------  ---------------      ----- ------------  ---------------
    82      1.005025  6 H  pz                25     -0.635302  2 bq s          
    34      0.635302  3 bq s                 73     -0.593071  5 H  pz         
    31      0.547016  2 bq py                40     -0.547016  3 bq py         
    26      0.365768  2 bq s                 35     -0.365768  3 bq s          
    54     -0.158837  4 O  pz         

 Vector   22  Occ=0.000000D+00  E= 4.073835D-01  Symmetry=a'
              MO Center= -6.3D-01, -1.4D+00,  1.1D-15, r^2= 6.5D+00
   Bfn.  Coefficient  Atom+Function         Bfn.  Coefficient  Atom+Function  
  ----- ------------  ---------------      ----- ------------  ---------------
     4      6.303549  1 bq s                 45      3.643088  4 O  s          
    66     -3.172714  5 H  s                 25     -2.378959  2 bq s          
    34     -2.378959  3 bq s                 67     -2.348160  5 H  s          
    75     -2.234454  6 H  s                 12      1.867221  1 bq py         
    72      0.785282  5 H  py                52     -0.757770  4 O  px         

 Vector   23  Occ=0.000000D+00  E= 4.335293D-01  Symmetry=a'
              MO Center= -2.8D-02, -1.9D+00, -2.5D-17, r^2= 6.8D+00
   Bfn.  Coefficient  Atom+Function         Bfn.  Coefficient  Atom+Function  
  ----- ------------  ---------------      ----- ------------  ---------------
    45      2.433168  4 O  s                 75     -1.483102  6 H  s          
    52     -1.156941  4 O  px                66     -0.807700  5 H  s          
    30      0.780177  2 bq px                39      0.780177  3 bq px         
    11     -0.753896  1 bq px                67     -0.667689  5 H  s          
    80      0.637168  6 H  px                12     -0.469679  1 bq py         

 Vector   24  Occ=0.000000D+00  E= 4.531414D-01  Symmetry=a"
              MO Center= -4.6D-01, -4.6D-01,  8.2D-16, r^2= 5.5D+00
   Bfn.  Coefficient  Atom+Function         Bfn.  Coefficient  Atom+Function  
  ----- ------------  ---------------      ----- ------------  ---------------
    73      1.402235  5 H  pz                54     -1.252594  4 O  pz         
    13     -1.077782  1 bq pz                82      1.037508  6 H  pz         
    26     -0.916886  2 bq s                 35      0.916886  3 bq s          
    51     -0.619549  4 O  pz                32      0.465885  2 bq pz         
    41      0.465885  3 bq pz                31     -0.161531  2 bq py         

 Vector   25  Occ=0.000000D+00  E= 4.604158D-01  Symmetry=a'
              MO Center=  1.9D-02, -1.7D+00,  3.7D-15, r^2= 8.5D+00
   Bfn.  Coefficient  Atom+Function         Bfn.  Coefficient  Atom+Function  
  ----- ------------  ---------------      ----- ------------  ---------------
     4      6.826017  1 bq s                 25     -3.789642  2 bq s          
    34     -3.789642  3 bq s                 11      2.446499  1 bq px         
    67      1.136578  5 H  s                 45     -1.118054  4 O  s          
    53     -0.916251  4 O  py                80      0.877151  6 H  px         
    81      0.732199  6 H  py                26     -0.646176  2 bq s          

 Vector   26  Occ=0.000000D+00  E= 4.891710D-01  Symmetry=a'
              MO Center= -2.0D-02, -2.5D+00, -1.4D-16, r^2= 5.9D+00
   Bfn.  Coefficient  Atom+Function         Bfn.  Coefficient  Atom+Function  
  ----- ------------  ---------------      ----- ------------  ---------------
    66      2.666898  5 H  s                 45     -1.556689  4 O  s          
    12     -1.094036  1 bq py                32     -0.878382  2 bq pz         
    41      0.878382  3 bq pz                 3      0.722232  1 bq s          
    30      0.664220  2 bq px                39      0.664220  3 bq px         
    52      0.637115  4 O  px                11     -0.593725  1 bq px         

 Vector   27  Occ=0.000000D+00  E= 5.394702D-01  Symmetry=a"
              MO Center= -8.5D-02, -2.7D+00, -1.7D-16, r^2= 6.0D+00
   Bfn.  Coefficient  Atom+Function         Bfn.  Coefficient  Atom+Function  
  ----- ------------  ---------------      ----- ------------  ---------------
    25      4.301536  2 bq s                 34     -4.301536  3 bq s          
    13      2.912995  1 bq pz                30     -1.670417  2 bq px         
    39      1.670417  3 bq px                26      1.507067  2 bq s          
    35     -1.507067  3 bq s                 32      0.852252  2 bq pz         
    41      0.852252  3 bq pz                10      0.759731  1 bq pz         


 center of mass
 --------------
 x =   0.09870495 y =  -0.00786051 z =   0.00000000

 moments of inertia (a.u.)
 ------------------
           4.157692023917          -0.151078344996           0.000000000000
          -0.151078344996           2.274017456047           0.000000000000
           0.000000000000           0.000000000000           6.431709479964

  Mulliken analysis of the total density
  --------------------------------------

    Atom       Charge   Shell Charges
 -----------   ------   -------------------------------------------------------
    1 X    0     0.00  -0.00 -0.00 -0.00  0.00  0.00  0.00 -0.00  0.00  0.00
    2 X    0     0.00  -0.00  0.00  0.00  0.00  0.00
    3 X    0     0.00  -0.00  0.00  0.00  0.00  0.00
    4 O    8     8.34   2.00  0.84  0.83  0.10  2.82  1.64  0.12  0.01 -0.02
    5 H    1     0.86   0.72  0.03 -0.00  0.08  0.03
    6 H    1     0.79   0.72 -0.01 -0.01  0.08  0.01

       Multipole analysis of the density wrt the origin
       ------------------------------------------------

     L   x y z        total         open         nuclear
     -   - - -        -----         ----         -------
     0   0 0 0     -0.000000      0.000000     10.000000

     1   1 0 0     -0.790810      0.000000      0.000000
     1   0 1 0      0.062890      0.000000      0.000000
     1   0 0 1      0.000000      0.000000      0.000000

     2   2 0 0     -4.641652      0.000000      2.035151
     2   1 1 0      0.119183      0.000000      0.167522
     2   1 0 1      0.000000      0.000000      0.000000
     2   0 2 0     -3.190190      0.000000      4.124008
     2   0 1 1      0.000000      0.000000      0.000000
     2   0 0 2     -5.654200      0.000000      0.000000


------------------------------------------------------------
EAF file 0: "./input_B_AB.aoints.0" size=2097152 bytes
------------------------------------------------------------
               write      read    awrite     aread      wait
               -----      ----    ------     -----      ----
     calls:        4         2         0         2         2
   data(b): 2.10e+06  1.05e+06  0.00e+00  1.05e+06
   time(s): 0.00e+00  0.00e+00  0.00e+00  0.00e+00  0.00e+00
rate(mb/s): 0.00e+00  0.00e+00
------------------------------------------------------------


 Parallel integral file used      72 records with       0 large values



                   Four-Index Transformation
                   -------------------------
          Number of basis functions:             82
          Number of shells:                      38
          Number of occupied orbitals:            5
          Number of occ. correlated orbitals:     5
          Block length:                          16
          Superscript MO index range:      1 -    5
          Subscript MO index range:        1 -   82
          MO coefficients read from:  ./input_B_AB.movecs      
          Number of operator matrices in core:   30
          Half-transformed integrals produced

     Pass:    1     Index range:    1  -    5     Time:      1.45
 ------------------------------------------
 MP2 Energy (coupled cluster initial guess)
 ------------------------------------------
 Reference energy:            -76.040972917803259
 MP2 Corr. energy:             -0.222959650407176
 Total MP2 energy:            -76.263932568210436


 ****************************************************************************
              the segmented parallel ccsd program:    8 nodes
 ****************************************************************************




 level of theory    ccsd(t)
 number of core         0
 number of occupied     5
 number of virtual     77
 number of deleted      0
 total functions       82
 number of shells      38
 basis label          566



   ***** ccsd parameters *****
   iprt   =     0
   convi  =  0.100E-05
   maxit  =    20
   mxvec  =     5
 memory           1073731948
  Using  1 OpenMP thread(s) in CCSD
  avail0,avail1,avail0-avail1                 16535                16535                    0
  avail0,avail1,avail0-avail1                 16535                16535                    0
  avail0,avail1,avail0-avail1                 16535                16550                  -15
  avail0,avail1,avail0-avail1                 16535                16550                  -15
  Restarting from old vector in ./input_B_AB.t2


-------------------------------------------------------------------------
 iter     correlation     delta       rms       T2     Non-T2      Main
             energy      energy      error      ampl     ampl      Block
                                                time     time      time
-------------------------------------------------------------------------
   1     -0.2249096499 -2.249D-01  1.507D-01     3.19     0.00     3.04
   2     -0.2266247936 -1.715D-03  1.408D-01     0.92     0.00     0.80
   3     -0.2295772801 -2.952D-03  3.422D-02     0.44     0.00     0.34
   4     -0.2300917415 -5.145D-04  1.690D-02     0.45     0.00     0.36
   5     -0.2302964315 -2.047D-04  3.023D-03     0.49     0.00     0.36
   6     -0.2303843654 -8.793D-05  3.883D-04     0.43     0.00     0.32
   7     -0.2303962682 -1.190D-05  4.796D-05     0.56     0.01     0.37
   8     -0.2303966327 -3.645D-07  5.552D-05     0.49     0.00     0.36
   9     -0.2303972603 -6.277D-07  2.163D-05     0.43     0.00     0.31
  10     -0.2303961802  1.080D-06  1.131D-05     0.43     0.00     0.31
  11     -0.2303961405  3.976D-08  1.196D-05     0.54     0.00     0.46
  12     -0.2303961007  3.972D-08  6.288D-06     0.53     0.00     0.40
  13     -0.2303961010 -2.503D-10  1.477D-06     0.48     0.00     0.38
  14     -0.2303961119 -1.087D-08  1.924D-07     0.49     0.00     0.38
                  *************converged*************
-------------------------------------------------------------------------

 -----------
 CCSD Energy
 -----------
 Reference energy:             -76.040972917803259
 CCSD corr. energy:             -0.230396111866359
 Total CCSD energy:            -76.271369029669614


 --------------------------------
 Spin Component Scaled (SCS) CCSD
 --------------------------------
 Same spin contribution:                 -0.050286233044351
 Same spin scaling factor:                1.130000000000000
 Opposite spin contribution:             -0.180109878822009
 Opposite spin scaling fact.:             1.270000000000000
 SCS-CCSD correlation energy:            -0.285562989444067
 Total SCS-CCSD energy:                 -76.326535907247333
 memory           1073731948


*********triples calculation*********

nkpass=    1; nvpass=    1; memdrv=         170401; memtrn=         942207; memavail=     1073731548
 memory available/node                     1073731548
 total number of virtual orbitals        77
 number of virtuals per integral pass    77
 number of integral evaluations           1
 number of occupied per triples pass      5
 number of triples passes                 1

 commencing integral evaluation        1 at          13.98
  symmetry use  T
task         2 out of       741 done   0%  at       0.1 secs
task        40 out of       741 done   5%  at       0.2 secs
task        79 out of       741 done  10%  at       0.3 secs
task       116 out of       741 done  15%  at       0.5 secs
task       180 out of       741 done  24%  at       0.7 secs
task       187 out of       741 done  25%  at       0.7 secs
task       230 out of       741 done  31%  at       0.8 secs
task       280 out of       741 done  37%  at       0.9 secs
task       297 out of       741 done  40%  at       1.0 secs
task       337 out of       741 done  45%  at       1.1 secs
task       380 out of       741 done  51%  at       1.1 secs
task       410 out of       741 done  55%  at       1.2 secs
task       445 out of       741 done  60%  at       1.2 secs
task       493 out of       741 done  66%  at       1.3 secs
task       529 out of       741 done  71%  at       1.3 secs
task       582 out of       741 done  78%  at       1.3 secs
task       604 out of       741 done  81%  at       1.4 secs
task       636 out of       741 done  85%  at       1.4 secs
task       674 out of       741 done  90%  at       1.5 secs
task       709 out of       741 done  95%  at       1.5 secs
 commencing triples evaluation - blocking       1
 ccsd(t): done        1 out of       77 progress:    1.3%
 ccsd(t): done        2 out of       77 progress:    2.6%
 ccsd(t): done        3 out of       77 progress:    3.9%
 ccsd(t): done        4 out of       77 progress:    5.2%
 ccsd(t): done        5 out of       77 progress:    6.5%
 ccsd(t): done        6 out of       77 progress:    7.8%
 ccsd(t): done        7 out of       77 progress:    9.1%
 ccsd(t): done        8 out of       77 progress:   10.4%
 ccsd(t): done        9 out of       77 progress:   11.7%
 ccsd(t): done       10 out of       77 progress:   13.0%
 ccsd(t): done       11 out of       77 progress:   14.3%
 ccsd(t): done       12 out of       77 progress:   15.6%
 ccsd(t): done       13 out of       77 progress:   16.9%
 ccsd(t): done       14 out of       77 progress:   18.2%
 ccsd(t): done       15 out of       77 progress:   19.5%
 ccsd(t): done       16 out of       77 progress:   20.8%
 ccsd(t): done       17 out of       77 progress:   22.1%
 ccsd(t): done       18 out of       77 progress:   23.4%
 ccsd(t): done       19 out of       77 progress:   24.7%
 ccsd(t): done       20 out of       77 progress:   26.0%
 ccsd(t): done       21 out of       77 progress:   27.3%
 ccsd(t): done       22 out of       77 progress:   28.6%
 ccsd(t): done       23 out of       77 progress:   29.9%
 ccsd(t): done       24 out of       77 progress:   31.2%
 ccsd(t): done       25 out of       77 progress:   32.5%
 ccsd(t): done       26 out of       77 progress:   33.8%
 ccsd(t): done       27 out of       77 progress:   35.1%
 ccsd(t): done       28 out of       77 progress:   36.4%
 ccsd(t): done       29 out of       77 progress:   37.7%
 ccsd(t): done       30 out of       77 progress:   39.0%
 ccsd(t): done       31 out of       77 progress:   40.3%
 ccsd(t): done       32 out of       77 progress:   41.6%
 ccsd(t): done       33 out of       77 progress:   42.9%
 ccsd(t): done       34 out of       77 progress:   44.2%
 ccsd(t): done       35 out of       77 progress:   45.5%
 ccsd(t): done       36 out of       77 progress:   46.8%
 ccsd(t): done       37 out of       77 progress:   48.1%
 ccsd(t): done       38 out of       77 progress:   49.4%
 ccsd(t): done       39 out of       77 progress:   50.6%
 ccsd(t): done       40 out of       77 progress:   51.9%
 ccsd(t): done       41 out of       77 progress:   53.2%
 ccsd(t): done       42 out of       77 progress:   54.5%
 ccsd(t): done       43 out of       77 progress:   55.8%
 ccsd(t): done       44 out of       77 progress:   57.1%
 ccsd(t): done       45 out of       77 progress:   58.4%
 ccsd(t): done       46 out of       77 progress:   59.7%
 ccsd(t): done       47 out of       77 progress:   61.0%
 ccsd(t): done       48 out of       77 progress:   62.3%
 ccsd(t): done       49 out of       77 progress:   63.6%
 ccsd(t): done       50 out of       77 progress:   64.9%
 ccsd(t): done       51 out of       77 progress:   66.2%
 ccsd(t): done       52 out of       77 progress:   67.5%
 ccsd(t): done       53 out of       77 progress:   68.8%
 ccsd(t): done       54 out of       77 progress:   70.1%
 ccsd(t): done       55 out of       77 progress:   71.4%
 ccsd(t): done       56 out of       77 progress:   72.7%
 ccsd(t): done       57 out of       77 progress:   74.0%
 ccsd(t): done       58 out of       77 progress:   75.3%
 ccsd(t): done       59 out of       77 progress:   76.6%
 ccsd(t): done       60 out of       77 progress:   77.9%
 ccsd(t): done       61 out of       77 progress:   79.2%
 ccsd(t): done       62 out of       77 progress:   80.5%
 ccsd(t): done       63 out of       77 progress:   81.8%
 ccsd(t): done       64 out of       77 progress:   83.1%
 ccsd(t): done       65 out of       77 progress:   84.4%
 ccsd(t): done       66 out of       77 progress:   85.7%
 ccsd(t): done       67 out of       77 progress:   87.0%
 ccsd(t): done       68 out of       77 progress:   88.3%
 ccsd(t): done       69 out of       77 progress:   89.6%
 ccsd(t): done       70 out of       77 progress:   90.9%
 ccsd(t): done       71 out of       77 progress:   92.2%
 ccsd(t): done       72 out of       77 progress:   93.5%
 ccsd(t): done       73 out of       77 progress:   94.8%
 ccsd(t): done       74 out of       77 progress:   96.1%
 ccsd(t): done       75 out of       77 progress:   97.4%
 ccsd(t): done       76 out of       77 progress:   98.7%
 ccsd(t): done       77 out of       77 progress:  100.0%
 Time for integral evaluation pass     1        1.57
 Time for triples evaluation pass      1        1.29

 pseudo-e(mp4)  -0.57575738003466E-02
 pseudo-e(mp5)   0.41021337406373E-03
        e(t)    -0.53473604262829E-02

 --------------
 CCSD(T) Energy
 --------------
 Reference energy:                     -76.040972917803259

 CCSD corr. energy:                     -0.230396111866359
 T(CCSD) corr. energy:                  -0.005757573800347
 Total CCSD+T(CCSD) energy:            -76.277126603469966

 CCSD corr. energy:                     -0.230396111866359
 (T) corr. energy:                      -0.005347360426283
 Total CCSD(T) energy:                 -76.276716390095899

 routine      calls  cpu(0)   cpu-min  cpu-ave  cpu-max   i/o 
 aoccsd          1     0.02     0.02     0.02     0.02    0.00
 iterdrv         1     0.22     0.22     0.22     0.22    0.00
 pampt          14     0.15     0.15     0.15     0.16    0.00
 t2pm           14     0.22     0.22     0.22     0.22    0.00
 sxy            14     1.22     0.26     0.77     1.22    0.00
 ints        68860     0.66     0.65     0.68     0.76    0.00
 f_write       186     0.10     0.07     0.08     0.14    0.00
 t2eri        1302     1.16     1.05     1.11     1.16    0.00
 idx2         1302     4.87     4.87     5.40     5.86    0.00
 idx34          14     0.02     0.01     0.01     0.02    0.00
 ht2pm          14     0.11     0.11     0.11     0.11    0.00
 itm            14     1.19     1.19     1.19     1.19    0.00
 pdiis          14     0.02     0.02     0.02     0.02    0.00
 r_read       1209     0.14     0.10     0.12     0.14    0.00
 triples         1     0.00     0.00     0.00     0.00    0.00
 rdtrpo          1     0.00     0.00     0.00     0.00    0.00
 trpmos          1     1.57     1.57     1.57     1.57    0.00
 trpdrv          1     0.79     0.74     0.79     0.82    0.00
 dovvv        1440     0.36     0.35     0.37     0.40    0.00
 doooo        1440     0.05     0.04     0.04     0.06    0.00
 tengy        1200     0.08     0.08     0.09     0.10    0.00
 Total                12.97    12.97    12.97    12.97    0.00

 Task  times  cpu:       16.8s     wall:       16.8s


                                NWChem Input Module
                                -------------------


 Summary of allocated global arrays
-----------------------------------
  No active global arrays


MA_summarize_allocated_blocks: starting scan ...
MA_summarize_allocated_blocks: scan completed: 0 heap blocks, 0 stack blocks
MA usage statistics:

	allocation statistics:
					      heap	     stack
					      ----	     -----
	current number of blocks	         0	         0
	maximum number of blocks	        18	        42
	current total bytes		         0	         0
	maximum total bytes		   8936432	7731415912
	maximum total K-bytes		      8937	   7731416
	maximum total M-bytes		         9	      7732


                                     CITATION
                                     --------
                Please cite the following reference when publishing
                           results obtained with NWChem:

          E. Apra, E. J. Bylaska, W. A. de Jong, N. Govind, K. Kowalski,
       T. P. Straatsma, M. Valiev, H. J. J. van Dam, Y. Alexeev, J. Anchell,
       V. Anisimov, F. W. Aquino, R. Atta-Fynn, J. Autschbach, N. P. Bauman,
     J. C. Becca, D. E. Bernholdt, K. Bhaskaran-Nair, S. Bogatko, P. Borowski,
         J. Boschen, J. Brabec, A. Bruner, E. Cauet, Y. Chen, G. N. Chuev,
      C. J. Cramer, J. Daily, M. J. O. Deegan, T. H. Dunning Jr., M. Dupuis,
   K. G. Dyall, G. I. Fann, S. A. Fischer, A. Fonari, H. Fruchtl, L. Gagliardi,
      J. Garza, N. Gawande, S. Ghosh, K. Glaesemann, A. W. Gotz, J. Hammond,
       V. Helms, E. D. Hermes, K. Hirao, S. Hirata, M. Jacquelin, L. Jensen,
   B. G. Johnson, H. Jonsson, R. A. Kendall, M. Klemm, R. Kobayashi, V. Konkov,
      S. Krishnamoorthy, M. Krishnan, Z. Lin, R. D. Lins, R. J. Littlefield,
      A. J. Logsdail, K. Lopata, W. Ma, A. V. Marenich, J. Martin del Campo,
   D. Mejia-Rodriguez, J. E. Moore, J. M. Mullin, T. Nakajima, D. R. Nascimento,
    J. A. Nichols, P. J. Nichols, J. Nieplocha, A. Otero-de-la-Roza, B. Palmer,
    A. Panyala, T. Pirojsirikul, B. Peng, R. Peverati, J. Pittner, L. Pollack,
   R. M. Richard, P. Sadayappan, G. C. Schatz, W. A. Shelton, D. W. Silverstein,
   D. M. A. Smith, T. A. Soares, D. Song, M. Swart, H. L. Taylor, G. S. Thomas,
            V. Tipparaju, D. G. Truhlar, K. Tsemekhman, T. Van Voorhis,
      A. Vazquez-Mayagoitia, P. Verma, O. Villa, A. Vishnu, K. D. Vogiatzis,
        D. Wang, J. H. Weare, M. J. Williamson, T. L. Windus, K. Wolinski,
        A. T. Wong, Q. Wu, C. Yang, Q. Yu, M. Zacharias, Z. Zhang, Y. Zhao,
                                and R. J. Harrison
                        "NWChem: Past, present, and future
                         J. Chem. Phys. 152, 184102 (2020)
                               doi:10.1063/5.0004997

                                      AUTHORS
                                      -------
  E. Apra, E. J. Bylaska, N. Govind, K. Kowalski, M. Valiev, D. Mejia-Rodriguez,
       A. Kunitsa, N. P. Bauman, A. Panyala, W. A. de Jong, T. P. Straatsma,
   H. J. J. van Dam, D. Wang, T. L. Windus, J. Hammond, J. Autschbach, A. Woods,
    K. Bhaskaran-Nair, J. Brabec, K. Lopata, S. A. Fischer, S. Krishnamoorthy,
     M. Jacquelin, W. Ma, M. Klemm, O. Villa, Y. Chen, V. Anisimov, F. Aquino,
     S. Hirata, M. T. Hackler, E. Hermes, L. Jensen, J. E. Moore, J. C. Becca,
      V. Konjkov, T. Risthaus, M. Malagoli, A. Marenich, A. Otero-de-la-Roza,
        J. Mullin, P. Nichols, R. Peverati, J. Pittner, Y. Zhao, P.-D. Fan,
        A. Fonari, M. J. Williamson, R. J. Harrison, J. R. Rehr, M. Dupuis,
     D. Silverstein, D. M. A. Smith, J. Nieplocha, V. Tipparaju, M. Krishnan,
     B. E. Van Kuiken, A. Vazquez-Mayagoitia, M. Swart, Q. Wu, T. Van Voorhis,
     A. A. Auer, M. Nooijen, L. D. Crosby, E. Brown, G. Cisneros, G. I. Fann,
   H. Fruchtl, J. Garza, K. Hirao, R. A. Kendall, J. A. Nichols, K. Tsemekhman,
    K. Wolinski, J. Anchell, D. E. Bernholdt, P. Borowski, T. Clark, D. Clerc,
   H. Dachsel, M. J. O. Deegan, K. Dyall, D. Elwood, E. Glendening, M. Gutowski,
   A. C. Hess, J. Jaffe, B. G. Johnson, J. Ju, R. Kobayashi, R. Kutteh, Z. Lin,
   R. Littlefield, X. Long, B. Meng, T. Nakajima, S. Niu, L. Pollack, M. Rosing,
   K. Glaesemann, G. Sandrone, M. Stave, H. Taylor, G. Thomas, J. H. van Lenthe,
                               A. T. Wong, Z. Zhang.

 Total times  cpu:       16.9s     wall:       16.9s
