 argument  1 = /var/folders/v1/k9l8hql13n1gcrjl_yh_gs5m0000gn/T/tmp2ag2czo2/input_A_AB.txt
                                         
                                         


             Northwest Computational Chemistry Package (NWChem) 7.2.3
             --------------------------------------------------------


                    Environmental Molecular Sciences Laboratory
                       Pacific Northwest National Laboratory
                                Richland, WA 99352

                              Copyright (c) 1994-2022
                       Pacific Northwest National Laboratory
                            Battelle Memorial Institute

             NWChem is an open-source computational chemistry package
                        distributed under the terms of the
                      Educational Community License (ECL) 2.0
             A copy of the license is included with this distribution
                              in the LICENSE.TXT file

                                  ACKNOWLEDGMENT
                                  --------------

            This software and its documentation were developed at the
            EMSL at Pacific Northwest National Laboratory, a multiprogram
            national laboratory, operated for the U.S. Department of Energy
            by Battelle under Contract Number DE-AC05-76RL01830. Support
            for this work was provided by the Department of Energy Office
            of Biological and Environmental Research, Office of Basic
            Energy Sciences, and the Office of Advanced Scientific Computing.


           Job information
           ---------------

    hostname        = visitor-wireless1-147-155-221-109.ameslab.gov
    program         = nwchem
    date            = Wed Jul  2 13:49:42 2025

    compiled        = Thu_Dec_26_16:03:44_2024
    source          = /private/tmp/nwchem-20241226-24280-orrtsi/nwchem-7.2.3
    nwchem branch   = 7.2.3
    nwchem revision = d690e065
    ga revision     = 5.8.0
    use scalapack   = T
    input           = /var/folders/v1/k9l8hql13n1gcrjl_yh_gs5m0000gn/T/tmp2ag2czo2/input_A_AB.txt
    prefix          = input_A_AB.
    data base       = ./input_A_AB.db
    status          = restart
    nproc           =        8
    time left       =     -1s



           Memory information
           ------------------

    heap     =  536870908 doubles =   4096.0 Mbytes
    stack    =  536870913 doubles =   4096.0 Mbytes
    global   = 1073741824 doubles =   8192.0 Mbytes (distinct from heap & stack)
    total    = 2147483645 doubles =  16384.0 Mbytes
    verify   = yes
    hardfail = no 


           Directory information
           ---------------------

  0 permanent = .
  0 scratch   = .


           Previous task information
           -------------------------

    Theory    = ccsd(t)                         
    Operation = energy                        
    Status    = ok                            
    Qmmm      = F
    Ignore    = F


           Geometries in the database
           --------------------------

       Name                              Natoms  Last Modified
       --------------------------------  ------  ------------------------
    1  geometry                               6  Wed Jul  2 13:48:45 2025  

  The geometry named "geometry" is the default for restart



           Basis sets in the database
           --------------------------

       Name                              Natoms  Last Modified
        --------------------------------  ------  ------------------------
    1  ao basis                               4  Wed Jul  2 13:48:45 2025  

  The basis set named "ao basis" is the default AO basis for restart




                                NWChem Input Module
                                -------------------



 Scaling coordinates for geometry "geometry" by  1.889725989
 (inverse scale =  0.529177249)

 CS  symmetry detected


                             Geometry "geometry" -> ""
                             -------------------------

 Output coordinates in angstroms (scale by  1.889725989 to convert to a.u.)

  No.       Tag          Charge          X              Y              Z
 ---- ---------------- ---------- -------------- -------------- --------------
    1 O                    8.0000    -0.11879060     0.00656590     0.00000000
    2 H                    1.0000     0.47516238    -0.02626362    -0.76108387
    3 H                    1.0000     0.47516238    -0.02626362     0.76108387
    4 bqO                  0.0000    -0.09826189    -2.40042200     0.00000000
    5 bqH                  0.0000     0.69807979    -1.85358727     0.00000000
    6 bqH                  0.0000    -0.82124438    -1.75975992     0.00000000

      Atomic Mass 
      ----------- 

      O                 15.994910
      H                  1.007825


 Effective nuclear repulsion energy (a.u.)       9.1127198437

            Nuclear Dipole moment (a.u.) 
            ----------------------------
        X                 Y               Z
 ---------------- ---------------- ----------------
     0.0000000000     0.0000000000     0.0000000000

      Symmetry information
      --------------------

 Group name             Cs        
 Group number              2
 Group order               2
 No. of unique centers     5

      Symmetry unique atoms

     1    2    4    5    6


            XYZ format geometry
            -------------------
     6
 geometry
 O                    -0.11879060     0.00656590     0.00000000
 H                     0.47516238    -0.02626362    -0.76108387
 H                     0.47516238    -0.02626362     0.76108387
 bqO                  -0.09826189    -2.40042200     0.00000000
 bqH                   0.69807979    -1.85358727     0.00000000
 bqH                  -0.82124438    -1.75975992     0.00000000

 ==============================================================================
                                internuclear distances
 ------------------------------------------------------------------------------
       center one      |      center two      | atomic units |  angstroms
 ------------------------------------------------------------------------------
    2 H                |   1 O                |     1.82543  |     0.96597
    3 H                |   1 O                |     1.82543  |     0.96597
    4 bqO              |   1 O                |     4.54871  |     2.40708
    5 bqH              |   1 O                |     3.83919  |     2.03161
    5 bqH              |   2 H                |     3.76433  |     1.99200
    5 bqH              |   3 H                |     3.76433  |     1.99200
    5 bqH              |   4 bqO              |     1.82551  |     0.96602
    6 bqH              |   1 O                |     3.59214  |     1.90088
    6 bqH              |   2 H                |     4.33606  |     2.29454
    6 bqH              |   3 H                |     4.33606  |     2.29454
    6 bqH              |   4 bqO              |     1.82547  |     0.96600
    6 bqH              |   5 bqH              |     2.87658  |     1.52222
 ------------------------------------------------------------------------------
                         number of included internuclear distances:         12
 ==============================================================================



 ==============================================================================
                                 internuclear angles
 ------------------------------------------------------------------------------
        center 1       |       center 2       |       center 3       |  degrees
 ------------------------------------------------------------------------------
    2 H                |   1 O                |   3 H                |   103.98
    2 H                |   1 O                |   4 bqO              |    87.75
    1 O                |   2 H                |   5 bqH              |    78.40
    2 H                |   1 O                |   6 bqH              |   101.28
    3 H                |   1 O                |   4 bqO              |    87.75
    1 O                |   3 H                |   5 bqH              |    78.40
    3 H                |   1 O                |   6 bqH              |   101.28
    1 O                |   5 bqH              |   4 bqO              |   100.77
    1 O                |   6 bqH              |   4 bqO              |   109.86
    1 O                |   6 bqH              |   5 bqH              |    71.85
    1 O                |   2 H                |   5 bqH              |    78.40
    2 H                |   1 O                |   6 bqH              |   101.28
    2 H                |   5 bqH              |   6 bqH              |    80.31
    1 O                |   3 H                |   5 bqH              |    78.40
    3 H                |   1 O                |   6 bqH              |   101.28
    3 H                |   5 bqH              |   6 bqH              |    80.31
    4 bqO              |   5 bqH              |   1 O                |   100.77
    4 bqO              |   6 bqH              |   1 O                |   109.86
    5 bqH              |   4 bqO              |   6 bqH              |   103.98
    5 bqH              |   2 H                |   1 O                |    78.40
    5 bqH              |   3 H                |   1 O                |    78.40
    1 O                |   5 bqH              |   4 bqO              |   100.77
    5 bqH              |   6 bqH              |   1 O                |    71.85
    2 H                |   5 bqH              |   3 H                |    44.92
    2 H                |   5 bqH              |   4 bqO              |   115.28
    2 H                |   5 bqH              |   6 bqH              |    80.31
    3 H                |   5 bqH              |   4 bqO              |   115.28
    3 H                |   5 bqH              |   6 bqH              |    80.31
    5 bqH              |   4 bqO              |   6 bqH              |   103.98
    6 bqH              |   1 O                |   2 H                |   101.28
    6 bqH              |   1 O                |   3 H                |   101.28
    1 O                |   6 bqH              |   4 bqO              |   109.86
    1 O                |   6 bqH              |   5 bqH              |    71.85
    2 H                |   6 bqH              |   3 H                |    38.74
    2 H                |   6 bqH              |   4 bqO              |    94.48
    6 bqH              |   5 bqH              |   2 H                |    80.31
    3 H                |   6 bqH              |   4 bqO              |    94.48
    6 bqH              |   5 bqH              |   3 H                |    80.31
    6 bqH              |   4 bqO              |   5 bqH              |   103.98
 ------------------------------------------------------------------------------
                            number of included internuclear angles:         39
 ==============================================================================



  library name resolved from: environment
  library file name is: </opt/homebrew/Caskroom/mambaforge/base/envs/ames/share/nwchem/libraries/>
  
                      Basis "ao basis" -> "" (spherical)
                      -----
  O (Oxygen)
  ----------
            Exponent  Coefficients 
       -------------- ---------------------------------------------------------
  1 S  1.17200000E+04  0.000710
  1 S  1.75900000E+03  0.005470
  1 S  4.00800000E+02  0.027837
  1 S  1.13700000E+02  0.104800
  1 S  3.70300000E+01  0.283062
  1 S  1.32700000E+01  0.448719
  1 S  5.02500000E+00  0.270952
  1 S  1.01300000E+00  0.015458

  2 S  1.17200000E+04 -0.000160
  2 S  1.75900000E+03 -0.001263
  2 S  4.00800000E+02 -0.006267
  2 S  1.13700000E+02 -0.025716
  2 S  3.70300000E+01 -0.070924
  2 S  1.32700000E+01 -0.165411
  2 S  5.02500000E+00 -0.116955
  2 S  1.01300000E+00  0.557368

  3 S  3.02300000E-01  1.000000

  4 S  7.89600000E-02  1.000000

  5 P  1.77000000E+01  0.043018
  5 P  3.85400000E+00  0.228913
  5 P  1.04600000E+00  0.508728

  6 P  2.75300000E-01  1.000000

  7 P  6.85600000E-02  1.000000

  8 D  1.18500000E+00  1.000000

  9 D  3.32000000E-01  1.000000

  H (Hydrogen)
  ------------
            Exponent  Coefficients 
       -------------- ---------------------------------------------------------
  1 S  1.30100000E+01  0.019685
  1 S  1.96200000E+00  0.137977
  1 S  4.44600000E-01  0.478148

  2 S  1.22000000E-01  1.000000

  3 S  2.97400000E-02  1.000000

  4 P  7.27000000E-01  1.000000

  5 P  1.41000000E-01  1.000000

  bqO
  ---
            Exponent  Coefficients 
       -------------- ---------------------------------------------------------
  1 S  1.17200000E+04  0.000710
  1 S  1.75900000E+03  0.005470
  1 S  4.00800000E+02  0.027837
  1 S  1.13700000E+02  0.104800
  1 S  3.70300000E+01  0.283062
  1 S  1.32700000E+01  0.448719
  1 S  5.02500000E+00  0.270952
  1 S  1.01300000E+00  0.015458

  2 S  1.17200000E+04 -0.000160
  2 S  1.75900000E+03 -0.001263
  2 S  4.00800000E+02 -0.006267
  2 S  1.13700000E+02 -0.025716
  2 S  3.70300000E+01 -0.070924
  2 S  1.32700000E+01 -0.165411
  2 S  5.02500000E+00 -0.116955
  2 S  1.01300000E+00  0.557368

  3 S  3.02300000E-01  1.000000

  4 S  7.89600000E-02  1.000000

  5 P  1.77000000E+01  0.043018
  5 P  3.85400000E+00  0.228913
  5 P  1.04600000E+00  0.508728

  6 P  2.75300000E-01  1.000000

  7 P  6.85600000E-02  1.000000

  8 D  1.18500000E+00  1.000000

  9 D  3.32000000E-01  1.000000

  bqH
  ---
            Exponent  Coefficients 
       -------------- ---------------------------------------------------------
  1 S  1.30100000E+01  0.019685
  1 S  1.96200000E+00  0.137977
  1 S  4.44600000E-01  0.478148

  2 S  1.22000000E-01  1.000000

  3 S  2.97400000E-02  1.000000

  4 P  7.27000000E-01  1.000000

  5 P  1.41000000E-01  1.000000



 Summary of "ao basis" -> "" (spherical)
 ------------------------------------------------------------------------------
       Tag                 Description            Shells   Functions and Types
 ---------------- ------------------------------  ------  ---------------------
 O                        aug-cc-pvdz                9       23   4s3p2d
 H                        aug-cc-pvdz                5        9   3s2p
 bqO                      aug-cc-pvdz                9       23   4s3p2d
 bqH                      aug-cc-pvdz                5        9   3s2p


                                 NWChem SCF Module
                                 -----------------



  ao basis        = "ao basis"
  functions       =    82
  atoms           =     6
  closed shells   =     5
  open shells     =     0
  charge          =   0.00
  wavefunction    = RHF 
  input vectors   = ./input_A_AB.movecs
  output vectors  = ./input_A_AB.movecs
  use symmetry    = T
  symmetry adapt  = T


 Summary of "ao basis" -> "ao basis" (spherical)
 ------------------------------------------------------------------------------
       Tag                 Description            Shells   Functions and Types
 ---------------- ------------------------------  ------  ---------------------
 O                        aug-cc-pvdz                9       23   4s3p2d
 H                        aug-cc-pvdz                5        9   3s2p
 bqO                      aug-cc-pvdz                9       23   4s3p2d
 bqH                      aug-cc-pvdz                5        9   3s2p


      Symmetry analysis of basis
      --------------------------

        a'         55
        a"         27


 Forming initial guess at       0.1s


 Loading old vectors from job with title :




      Symmetry analysis of molecular orbitals - initial
      -------------------------------------------------

  Numbering of irreducible representations: 

     1 a'          2 a"      

  Orbital symmetries:

     1 a'          2 a'          3 a"          4 a'          5 a'      
     6 a'          7 a"          8 a'          9 a'         10 a'      
    11 a'         12 a"         13 a'         14 a'         15 a"      


 Starting SCF solution at       0.2s



 ----------------------------------------------
         Quadratically convergent ROHF

 Convergence threshold     :          1.000E-06
 Maximum no. of iterations :           30
 Final Fock-matrix accuracy:          1.000E-08
 ----------------------------------------------


 Integral file          = ./input_A_AB.aoints.0
 Record size in doubles =  65536        No. of integs per rec  =  43688
 Max. records in memory =     17        Max. records in file   =   4650
 No. of bits per label  =      8        No. of bits per value  =     64


 #quartets = 1.862D+05 #integrals = 3.136D+06 #direct =  0.0% #cached =100.0%


File balance: exchanges=    12  moved=    14  time=   0.0


              iter       energy          gnorm     gmax       time
             ----- ------------------- --------- --------- --------
                 1      -76.0387768003  1.99D-01  5.39D-02      0.4
                 2      -76.0412302661  9.04D-03  2.28D-03      0.5
                 3      -76.0412375663  3.87D-05  1.19D-05      0.6
                 4      -76.0412375665  3.88D-08  1.43D-08      0.8


       Final RHF  results 
       ------------------ 

         Total SCF energy =    -76.041237566523
      One-electron energy =   -122.831428779229
      Two-electron energy =     37.677471368983
 Nuclear repulsion energy =      9.112719843723

        Time for solution =      0.7s



       Symmetry analysis of molecular orbitals - final
       -----------------------------------------------

  Numbering of irreducible representations: 

     1 a'          2 a"      

  Orbital symmetries:

     1 a'          2 a'          3 a"          4 a'          5 a'      
     6 a'          7 a"          8 a'          9 a'         10 a'      
    11 a"         12 a'         13 a'         14 a'         15 a"      

             Final eigenvalues
             -----------------

              1      
    1  -20.5791
    2   -1.3523
    3   -0.7132
    4   -0.5847
    5   -0.5088
    6    0.0314
    7    0.0576
    8    0.0599
    9    0.0669
   10    0.1704
   11    0.1779
   12    0.1838
   13    0.1913
   14    0.2200
   15    0.2325

                       ROHF Final Molecular Orbital Analysis
                       -------------------------------------

 Vector    2  Occ=2.000000D+00  E=-1.352350D+00  Symmetry=a'
              MO Center=  4.9D-02, -2.7D-03, -1.1D-17, r^2= 5.0D-01
   Bfn.  Coefficient  Atom+Function         Bfn.  Coefficient  Atom+Function  
  ----- ------------  ---------------      ----- ------------  ---------------
     2      0.448327  1 O  s                  3      0.386694  1 O  s          
    24      0.203689  2 H  s                 33      0.203689  3 H  s          

 Vector    3  Occ=2.000000D+00  E=-7.132342D-01  Symmetry=a"
              MO Center=  9.5D-02, -5.2D-03, -7.0D-18, r^2= 7.7D-01
   Bfn.  Coefficient  Atom+Function         Bfn.  Coefficient  Atom+Function  
  ----- ------------  ---------------      ----- ------------  ---------------
     7      0.498709  1 O  pz                24     -0.347075  2 H  s          
    33      0.347075  3 H  s                 10      0.202520  1 O  pz         

 Vector    4  Occ=2.000000D+00  E=-5.847439D-01  Symmetry=a'
              MO Center= -1.5D-01,  8.3D-03, -3.9D-17, r^2= 7.3D-01
   Bfn.  Coefficient  Atom+Function         Bfn.  Coefficient  Atom+Function  
  ----- ------------  ---------------      ----- ------------  ---------------
     5      0.546567  1 O  px                 8      0.325482  1 O  px         
     3     -0.316941  1 O  s                 24      0.212789  2 H  s          
    33      0.212789  3 H  s                  2     -0.151760  1 O  s          

 Vector    5  Occ=2.000000D+00  E=-5.087846D-01  Symmetry=a'
              MO Center= -7.9D-02,  4.8D-03,  4.3D-19, r^2= 6.8D-01
   Bfn.  Coefficient  Atom+Function         Bfn.  Coefficient  Atom+Function  
  ----- ------------  ---------------      ----- ------------  ---------------
     6      0.626929  1 O  py                 9      0.454598  1 O  py         

 Vector    6  Occ=0.000000D+00  E= 3.136354D-02  Symmetry=a'
              MO Center=  1.3D+00, -8.9D-01, -1.5D-16, r^2= 1.1D+01
   Bfn.  Coefficient  Atom+Function         Bfn.  Coefficient  Atom+Function  
  ----- ------------  ---------------      ----- ------------  ---------------
     4      1.183940  1 O  s                 67     -1.108012  5 bq s          
    45      0.889585  4 bq s                 26     -0.521887  2 H  s          
    35     -0.521887  3 H  s                 66     -0.458907  5 bq s          
    25     -0.375985  2 H  s                 34     -0.375985  3 H  s          
    76      0.368850  6 bq s                 53      0.224092  4 bq py         

 Vector    7  Occ=0.000000D+00  E= 5.756606D-02  Symmetry=a"
              MO Center=  8.5D-01,  3.3D-02,  8.1D-16, r^2= 1.6D+01
   Bfn.  Coefficient  Atom+Function         Bfn.  Coefficient  Atom+Function  
  ----- ------------  ---------------      ----- ------------  ---------------
    26      3.008609  2 H  s                 35     -3.008609  3 H  s          
    13      0.839797  1 O  pz                25      0.589919  2 H  s          
    34     -0.589919  3 H  s          

 Vector    8  Occ=0.000000D+00  E= 5.986027D-02  Symmetry=a'
              MO Center=  2.1D-01, -1.4D+00, -1.7D-15, r^2= 1.7D+01
   Bfn.  Coefficient  Atom+Function         Bfn.  Coefficient  Atom+Function  
  ----- ------------  ---------------      ----- ------------  ---------------
    67      1.487604  5 bq s                 76      1.384290  6 bq s          
    26     -1.336814  2 H  s                 35     -1.336814  3 H  s          
    45     -1.171763  4 bq s                  4      0.994121  1 O  s          
    75      0.459805  6 bq s                 25     -0.326970  2 H  s          
    34     -0.326970  3 H  s                 12      0.288854  1 O  py         

 Vector    9  Occ=0.000000D+00  E= 6.694458D-02  Symmetry=a'
              MO Center= -8.1D-01, -1.6D+00,  8.7D-16, r^2= 1.6D+01
   Bfn.  Coefficient  Atom+Function         Bfn.  Coefficient  Atom+Function  
  ----- ------------  ---------------      ----- ------------  ---------------
    67      3.351089  5 bq s                 76     -3.105145  6 bq s          
    52     -0.727526  4 bq px                75     -0.643952  6 bq s          
    66      0.516279  5 bq s                 26     -0.426858  2 H  s          
    35     -0.426858  3 H  s                 11     -0.325807  1 O  px         
     4      0.254598  1 O  s                 53      0.184975  4 bq py         

 Vector   10  Occ=0.000000D+00  E= 1.703581D-01  Symmetry=a'
              MO Center=  6.2D-01, -1.1D+00,  2.0D-15, r^2= 1.0D+01
   Bfn.  Coefficient  Atom+Function         Bfn.  Coefficient  Atom+Function  
  ----- ------------  ---------------      ----- ------------  ---------------
     4      4.979256  1 O  s                 45      2.479845  4 bq s          
    25     -1.873037  2 H  s                 34     -1.873037  3 H  s          
    11      1.562539  1 O  px                67     -1.565627  5 bq s          
    75     -1.434884  6 bq s                 66     -1.100584  5 bq s          
    12     -0.923623  1 O  py                80     -0.355056  6 bq px         

 Vector   11  Occ=0.000000D+00  E= 1.779088D-01  Symmetry=a"
              MO Center= -2.9D-02, -2.4D+00, -2.1D-15, r^2= 8.3D+00
   Bfn.  Coefficient  Atom+Function         Bfn.  Coefficient  Atom+Function  
  ----- ------------  ---------------      ----- ------------  ---------------
    54      1.549375  4 bq pz                26      1.316067  2 H  s          
    35     -1.316067  3 H  s                 82     -0.332921  6 bq pz         
    73     -0.326248  5 bq pz                13      0.268627  1 O  pz         

 Vector   12  Occ=0.000000D+00  E= 1.837628D-01  Symmetry=a'
              MO Center= -2.1D-01, -2.0D+00, -5.7D-16, r^2= 1.0D+01
   Bfn.  Coefficient  Atom+Function         Bfn.  Coefficient  Atom+Function  
  ----- ------------  ---------------      ----- ------------  ---------------
    53      1.878885  4 bq py                45      1.725152  4 bq s          
     4     -1.677241  1 O  s                 66     -1.583942  5 bq s          
    52      1.184752  4 bq px                11     -1.043494  1 O  px         
    76      0.780470  6 bq s                 25      0.720467  2 H  s          
    34      0.720467  3 H  s                 26     -0.476004  2 H  s          

 Vector   13  Occ=0.000000D+00  E= 1.913409D-01  Symmetry=a'
              MO Center=  2.0D-02, -1.4D+00,  1.6D-16, r^2= 1.1D+01
   Bfn.  Coefficient  Atom+Function         Bfn.  Coefficient  Atom+Function  
  ----- ------------  ---------------      ----- ------------  ---------------
     4      3.498731  1 O  s                 45     -3.433031  4 bq s          
    11      1.453288  1 O  px                25     -1.408412  2 H  s          
    34     -1.408412  3 H  s                 66      1.393448  5 bq s          
    67      1.257385  5 bq s                 12     -1.230483  1 O  py         
    52     -1.159153  4 bq px                75     -0.584333  6 bq s          

 Vector   14  Occ=0.000000D+00  E= 2.199557D-01  Symmetry=a'
              MO Center= -3.8D-01, -2.0D+00,  8.2D-16, r^2= 1.1D+01
   Bfn.  Coefficient  Atom+Function         Bfn.  Coefficient  Atom+Function  
  ----- ------------  ---------------      ----- ------------  ---------------
     4      3.545064  1 O  s                 45     -3.470364  4 bq s          
    76      3.045098  6 bq s                 75      2.807761  6 bq s          
    67     -2.088544  5 bq s                 52      2.055052  4 bq px         
    11      1.445853  1 O  px                53     -1.422050  4 bq py         
    25     -1.350053  2 H  s                 34     -1.350053  3 H  s          

 Vector   15  Occ=0.000000D+00  E= 2.325160D-01  Symmetry=a"
              MO Center= -1.8D-01,  6.1D-02,  1.3D-15, r^2= 1.0D+01
   Bfn.  Coefficient  Atom+Function         Bfn.  Coefficient  Atom+Function  
  ----- ------------  ---------------      ----- ------------  ---------------
    13      3.144835  1 O  pz                25      2.689485  2 H  s          
    34     -2.689485  3 H  s                 26      2.537032  2 H  s          
    35     -2.537032  3 H  s                 32      0.607426  2 H  pz         
    41      0.607426  3 H  pz                30     -0.565011  2 H  px         
    39      0.565011  3 H  px                10      0.259914  1 O  pz         

 Vector   16  Occ=0.000000D+00  E= 2.421546D-01  Symmetry=a'
              MO Center=  1.5D-02,  4.2D-01,  2.7D-17, r^2= 1.1D+01
   Bfn.  Coefficient  Atom+Function         Bfn.  Coefficient  Atom+Function  
  ----- ------------  ---------------      ----- ------------  ---------------
    67      2.970634  5 bq s                 12      2.570535  1 O  py         
    26     -1.336473  2 H  s                 35     -1.336473  3 H  s          
    52     -1.330627  4 bq px                76     -1.077102  6 bq s          
    53      0.842395  4 bq py                66      0.750565  5 bq s          
    45      0.666900  4 bq s                 81      0.519614  6 bq py         

 Vector   17  Occ=0.000000D+00  E= 2.823972D-01  Symmetry=a"
              MO Center=  3.4D-01, -1.2D-01, -8.1D-17, r^2= 4.6D+00
   Bfn.  Coefficient  Atom+Function         Bfn.  Coefficient  Atom+Function  
  ----- ------------  ---------------      ----- ------------  ---------------
    13      0.963288  1 O  pz                32     -0.602545  2 H  pz         
    41     -0.602545  3 H  pz                25      0.548789  2 H  s          
    34     -0.548789  3 H  s                 30      0.444763  2 H  px         
    39     -0.444763  3 H  px                73     -0.353038  5 bq pz         
    26     -0.280365  2 H  s                 35      0.280365  3 H  s          

 Vector   18  Occ=0.000000D+00  E= 2.827564D-01  Symmetry=a'
              MO Center= -2.1D-01, -6.2D-01, -1.1D-15, r^2= 9.1D+00
   Bfn.  Coefficient  Atom+Function         Bfn.  Coefficient  Atom+Function  
  ----- ------------  ---------------      ----- ------------  ---------------
    45      3.225769  4 bq s                  4     -2.878581  1 O  s          
    12      2.272266  1 O  py                53      2.225381  4 bq py         
    66     -1.286860  5 bq s                 11      1.101659  1 O  px         
    76      1.090143  6 bq s                 75     -0.496695  6 bq s          
    81      0.477447  6 bq py                32      0.423217  2 H  pz         

 Vector   19  Occ=0.000000D+00  E= 3.304715D-01  Symmetry=a'
              MO Center=  1.3D-01, -7.0D-01,  1.6D-16, r^2= 5.6D+00
   Bfn.  Coefficient  Atom+Function         Bfn.  Coefficient  Atom+Function  
  ----- ------------  ---------------      ----- ------------  ---------------
    45      3.884968  4 bq s                  4     -3.312813  1 O  s          
    66     -1.761713  5 bq s                 53      1.451577  4 bq py         
    75     -1.342812  6 bq s                 12      1.115887  1 O  py         
    25      1.013005  2 H  s                 34      1.013005  3 H  s          
    30     -0.563064  2 H  px                39     -0.563064  3 H  px         

 Vector   20  Occ=0.000000D+00  E= 3.974172D-01  Symmetry=a'
              MO Center=  1.3D-01, -1.3D+00, -2.7D-16, r^2= 6.6D+00
   Bfn.  Coefficient  Atom+Function         Bfn.  Coefficient  Atom+Function  
  ----- ------------  ---------------      ----- ------------  ---------------
     4      3.843018  1 O  s                 25     -1.923670  2 H  s          
    34     -1.923670  3 H  s                 66     -1.903843  5 bq s          
    52      1.874572  4 bq px                12     -1.168284  1 O  py         
    11      0.984485  1 O  px                67     -0.973261  5 bq s          
    76      0.844840  6 bq s                 71     -0.790822  5 bq px         

 Vector   21  Occ=0.000000D+00  E= 4.156893D-01  Symmetry=a"
              MO Center=  4.0D-01, -6.0D-01, -5.1D-16, r^2= 5.7D+00
   Bfn.  Coefficient  Atom+Function         Bfn.  Coefficient  Atom+Function  
  ----- ------------  ---------------      ----- ------------  ---------------
    25      1.166925  2 H  s                 34     -1.166925  3 H  s          
    54     -0.981008  4 bq pz                31      0.892726  2 H  py         
    40     -0.892726  3 H  py                73      0.577222  5 bq pz         
    32      0.556373  2 H  pz                41      0.556373  3 H  pz         
    82      0.514908  6 bq pz                26     -0.510066  2 H  s          

 Vector   22  Occ=0.000000D+00  E= 4.445107D-01  Symmetry=a'
              MO Center= -3.1D-01, -1.7D+00, -2.9D-16, r^2= 6.2D+00
   Bfn.  Coefficient  Atom+Function         Bfn.  Coefficient  Atom+Function  
  ----- ------------  ---------------      ----- ------------  ---------------
    45      6.967615  4 bq s                 75     -4.347483  6 bq s          
    66     -3.652364  5 bq s                  4      1.923567  1 O  s          
    53      1.742504  4 bq py                25     -1.314110  2 H  s          
    34     -1.314110  3 H  s                 76     -0.704748  6 bq s          
    72      0.590081  5 bq py                30      0.556541  2 H  px         

 Vector   23  Occ=0.000000D+00  E= 4.905221D-01  Symmetry=a"
              MO Center= -6.4D-02, -1.6D+00, -1.2D-15, r^2= 5.1D+00
   Bfn.  Coefficient  Atom+Function         Bfn.  Coefficient  Atom+Function  
  ----- ------------  ---------------      ----- ------------  ---------------
    82     -1.349274  6 bq pz                73      1.330337  5 bq pz         
    13      1.065865  1 O  pz                25      0.954175  2 H  s          
    34     -0.954175  3 H  s                 26      0.528541  2 H  s          
    35     -0.528541  3 H  s                 31     -0.250439  2 H  py         
    40      0.250439  3 H  py                32     -0.200868  2 H  pz         

 Vector   24  Occ=0.000000D+00  E= 4.961377D-01  Symmetry=a'
              MO Center= -7.6D-02, -1.6D-01,  2.5D-15, r^2= 6.4D+00
   Bfn.  Coefficient  Atom+Function         Bfn.  Coefficient  Atom+Function  
  ----- ------------  ---------------      ----- ------------  ---------------
     4     11.324495  1 O  s                 25     -5.001395  2 H  s          
    34     -5.001395  3 H  s                 45     -3.070209  4 bq s          
    11      2.720190  1 O  px                12     -2.313886  1 O  py         
    53     -1.322877  4 bq py                75     -1.152374  6 bq s          
    66      1.106238  5 bq s                  8      0.969850  1 O  px         

 Vector   25  Occ=0.000000D+00  E= 5.060276D-01  Symmetry=a'
              MO Center=  1.4D-01, -1.9D+00, -8.8D-16, r^2= 4.9D+00
   Bfn.  Coefficient  Atom+Function         Bfn.  Coefficient  Atom+Function  
  ----- ------------  ---------------      ----- ------------  ---------------
    45      3.795458  4 bq s                 66     -2.031360  5 bq s          
    71      1.541461  5 bq px                75     -1.395824  6 bq s          
     4     -1.019366  1 O  s                 80     -1.009292  6 bq px         
    44      0.878415  4 bq s                 53      0.742987  4 bq py         
    67     -0.699407  5 bq s                 25      0.591446  2 H  s          


 center of mass
 --------------
 x =  -0.09886746 y =   0.00546469 z =   0.00000000

 moments of inertia (a.u.)
 ------------------
           4.176330600239           0.124647626283           0.000000000000
           0.124647626283           6.424570552805           0.000000000000
           0.000000000000           0.000000000000           2.262019232293

  Mulliken analysis of the total density
  --------------------------------------

    Atom       Charge   Shell Charges
 -----------   ------   -------------------------------------------------------
    1 O    8     8.40   2.00  0.84  0.83  0.12  2.81  1.66  0.14  0.01 -0.02
    2 H    1     0.81   0.72 -0.01 -0.00  0.08  0.02
    3 H    1     0.81   0.72 -0.01 -0.00  0.08  0.02
    4 X    0    -0.00   0.00  0.00  0.00 -0.00  0.00  0.00 -0.00  0.00 -0.00
    5 X    0    -0.00   0.00 -0.01 -0.01 -0.00  0.01
    6 X    0    -0.01   0.00 -0.00  0.00 -0.00 -0.01

       Multipole analysis of the density wrt the origin
       ------------------------------------------------

     L   x y z        total         open         nuclear
     -   - - -        -----         ----         -------
     0   0 0 0     -0.000000      0.000000     10.000000

     1   1 0 0      0.787158      0.000000      0.000000
     1   0 1 0     -0.044331      0.000000      0.000000
     1   0 0 1     -0.000000      0.000000      0.000000

     2   2 0 0     -4.651724      0.000000      2.015681
     2   1 1 0     -0.046561      0.000000     -0.111413
     2   1 0 1     -0.000000      0.000000      0.000000
     2   0 2 0     -5.657064      0.000000      0.006158
     2   0 1 1     -0.000000      0.000000      0.000000
     2   0 0 2     -3.175099      0.000000      4.137068


------------------------------------------------------------
EAF file 0: "./input_A_AB.aoints.0" size=3145728 bytes
------------------------------------------------------------
               write      read    awrite     aread      wait
               -----      ----    ------     -----      ----
     calls:        6         1         0         5         5
   data(b): 3.15e+06  5.24e+05  0.00e+00  2.62e+06
   time(s): 0.00e+00  0.00e+00  0.00e+00  0.00e+00  0.00e+00
rate(mb/s): 0.00e+00  0.00e+00
------------------------------------------------------------


 Parallel integral file used      76 records with       0 large values



                   Four-Index Transformation
                   -------------------------
          Number of basis functions:             82
          Number of shells:                      38
          Number of occupied orbitals:            5
          Number of occ. correlated orbitals:     5
          Block length:                          16
          Superscript MO index range:      1 -    5
          Subscript MO index range:        1 -   82
          MO coefficients read from:  ./input_A_AB.movecs      
          Number of operator matrices in core:   30
          Half-transformed integrals produced

     Pass:    1     Index range:    1  -    5     Time:      1.16
 ------------------------------------------
 MP2 Energy (coupled cluster initial guess)
 ------------------------------------------
 Reference energy:            -76.041237566523421
 MP2 Corr. energy:             -0.223460498071299
 Total MP2 energy:            -76.264698064594725


 ****************************************************************************
              the segmented parallel ccsd program:    8 nodes
 ****************************************************************************




 level of theory    ccsd(t)
 number of core         0
 number of occupied     5
 number of virtual     77
 number of deleted      0
 total functions       82
 number of shells      38
 basis label          566



   ***** ccsd parameters *****
   iprt   =     0
   convi  =  0.100E-05
   maxit  =    20
   mxvec  =     5
 memory           1073731948
  Using  1 OpenMP thread(s) in CCSD
  avail0,avail1,avail0-avail1                 19571                19571                    0
  avail0,avail1,avail0-avail1                 19571                19586                  -15
  avail0,avail1,avail0-avail1                 19571                19586                  -15
  avail0,avail1,avail0-avail1                 19571                19586                  -15
  Restarting from old vector in ./input_A_AB.t2


-------------------------------------------------------------------------
 iter     correlation     delta       rms       T2     Non-T2      Main
             energy      energy      error      ampl     ampl      Block
                                                time     time      time
-------------------------------------------------------------------------
   1     -0.2247748691 -2.248D-01  1.948D-01     2.31     0.00     2.18
   2     -0.2261579354 -1.383D-03  9.672D-02     0.49     0.00     0.37
   3     -0.2297973708 -3.639D-03  4.008D-02     0.35     0.00     0.27
   4     -0.2304846165 -6.872D-04  1.023D-02     0.36     0.00     0.27
   5     -0.2307966734 -3.121D-04  3.052D-03     0.32     0.00     0.25
   6     -0.2308835202 -8.685D-05  9.334D-04     0.36     0.00     0.28
   7     -0.2308791678  4.352D-06  2.621D-04     0.38     0.00     0.30
   8     -0.2308765365  2.631D-06  8.963D-05     0.37     0.00     0.29
   9     -0.2308762351  3.015D-07  7.062D-05     0.33     0.00     0.26
  10     -0.2308752939  9.412D-07  1.854D-05     0.37     0.00     0.29
  11     -0.2308755594 -2.656D-07  5.288D-06     0.43     0.00     0.29
  12     -0.2308756624 -1.030D-07  2.475D-06     0.37     0.00     0.28
  13     -0.2308757495 -8.708D-08  1.052D-06     0.34     0.00     0.26
  14     -0.2308757742 -2.466D-08  2.569D-07     0.36     0.00     0.27
                  *************converged*************
-------------------------------------------------------------------------

 -----------
 CCSD Energy
 -----------
 Reference energy:             -76.041237566523421
 CCSD corr. energy:             -0.230875774156470
 Total CCSD energy:            -76.272113340679894


 --------------------------------
 Spin Component Scaled (SCS) CCSD
 --------------------------------
 Same spin contribution:                 -0.050380348939319
 Same spin scaling factor:                1.130000000000000
 Opposite spin contribution:             -0.180495425217151
 Opposite spin scaling fact.:             1.270000000000000
 SCS-CCSD correlation energy:            -0.286158984327212
 Total SCS-CCSD energy:                 -76.327396550850622
 memory           1073731948


*********triples calculation*********

nkpass=    1; nvpass=    1; memdrv=         170401; memtrn=         942207; memavail=     1073731548
 memory available/node                     1073731548
 total number of virtual orbitals        77
 number of virtuals per integral pass    77
 number of integral evaluations           1
 number of occupied per triples pass      5
 number of triples passes                 1

 commencing integral evaluation        1 at           9.49
  symmetry use  T
task         4 out of       741 done   0%  at       0.1 secs
task        45 out of       741 done   6%  at       0.2 secs
task        78 out of       741 done  10%  at       0.3 secs
task       117 out of       741 done  15%  at       0.6 secs
task       174 out of       741 done  23%  at       0.8 secs
task       187 out of       741 done  25%  at       0.8 secs
task       233 out of       741 done  31%  at       0.9 secs
task       280 out of       741 done  37%  at       1.0 secs
task       301 out of       741 done  40%  at       1.0 secs
task       339 out of       741 done  45%  at       1.1 secs
task       374 out of       741 done  50%  at       1.2 secs
task       408 out of       741 done  55%  at       1.2 secs
task       450 out of       741 done  60%  at       1.3 secs
task       488 out of       741 done  65%  at       1.3 secs
task       524 out of       741 done  70%  at       1.3 secs
task       598 out of       741 done  80%  at       1.4 secs
task       636 out of       741 done  85%  at       1.4 secs
task       670 out of       741 done  90%  at       1.5 secs
task       709 out of       741 done  95%  at       1.5 secs
task       741 out of       741 done 100%  at       1.5 secs
 commencing triples evaluation - blocking       1
 ccsd(t): done        1 out of       77 progress:    1.3%
 ccsd(t): done        2 out of       77 progress:    2.6%
 ccsd(t): done        3 out of       77 progress:    3.9%
 ccsd(t): done        4 out of       77 progress:    5.2%
 ccsd(t): done        5 out of       77 progress:    6.5%
 ccsd(t): done        6 out of       77 progress:    7.8%
 ccsd(t): done        7 out of       77 progress:    9.1%
 ccsd(t): done        8 out of       77 progress:   10.4%
 ccsd(t): done        9 out of       77 progress:   11.7%
 ccsd(t): done       10 out of       77 progress:   13.0%
 ccsd(t): done       11 out of       77 progress:   14.3%
 ccsd(t): done       12 out of       77 progress:   15.6%
 ccsd(t): done       13 out of       77 progress:   16.9%
 ccsd(t): done       14 out of       77 progress:   18.2%
 ccsd(t): done       15 out of       77 progress:   19.5%
 ccsd(t): done       16 out of       77 progress:   20.8%
 ccsd(t): done       17 out of       77 progress:   22.1%
 ccsd(t): done       18 out of       77 progress:   23.4%
 ccsd(t): done       19 out of       77 progress:   24.7%
 ccsd(t): done       20 out of       77 progress:   26.0%
 ccsd(t): done       21 out of       77 progress:   27.3%
 ccsd(t): done       22 out of       77 progress:   28.6%
 ccsd(t): done       23 out of       77 progress:   29.9%
 ccsd(t): done       24 out of       77 progress:   31.2%
 ccsd(t): done       25 out of       77 progress:   32.5%
 ccsd(t): done       26 out of       77 progress:   33.8%
 ccsd(t): done       27 out of       77 progress:   35.1%
 ccsd(t): done       28 out of       77 progress:   36.4%
 ccsd(t): done       29 out of       77 progress:   37.7%
 ccsd(t): done       30 out of       77 progress:   39.0%
 ccsd(t): done       31 out of       77 progress:   40.3%
 ccsd(t): done       32 out of       77 progress:   41.6%
 ccsd(t): done       33 out of       77 progress:   42.9%
 ccsd(t): done       34 out of       77 progress:   44.2%
 ccsd(t): done       35 out of       77 progress:   45.5%
 ccsd(t): done       36 out of       77 progress:   46.8%
 ccsd(t): done       37 out of       77 progress:   48.1%
 ccsd(t): done       38 out of       77 progress:   49.4%
 ccsd(t): done       39 out of       77 progress:   50.6%
 ccsd(t): done       40 out of       77 progress:   51.9%
 ccsd(t): done       41 out of       77 progress:   53.2%
 ccsd(t): done       42 out of       77 progress:   54.5%
 ccsd(t): done       43 out of       77 progress:   55.8%
 ccsd(t): done       44 out of       77 progress:   57.1%
 ccsd(t): done       45 out of       77 progress:   58.4%
 ccsd(t): done       46 out of       77 progress:   59.7%
 ccsd(t): done       47 out of       77 progress:   61.0%
 ccsd(t): done       48 out of       77 progress:   62.3%
 ccsd(t): done       49 out of       77 progress:   63.6%
 ccsd(t): done       50 out of       77 progress:   64.9%
 ccsd(t): done       51 out of       77 progress:   66.2%
 ccsd(t): done       52 out of       77 progress:   67.5%
 ccsd(t): done       53 out of       77 progress:   68.8%
 ccsd(t): done       54 out of       77 progress:   70.1%
 ccsd(t): done       55 out of       77 progress:   71.4%
 ccsd(t): done       56 out of       77 progress:   72.7%
 ccsd(t): done       57 out of       77 progress:   74.0%
 ccsd(t): done       58 out of       77 progress:   75.3%
 ccsd(t): done       59 out of       77 progress:   76.6%
 ccsd(t): done       60 out of       77 progress:   77.9%
 ccsd(t): done       61 out of       77 progress:   79.2%
 ccsd(t): done       62 out of       77 progress:   80.5%
 ccsd(t): done       63 out of       77 progress:   81.8%
 ccsd(t): done       64 out of       77 progress:   83.1%
 ccsd(t): done       65 out of       77 progress:   84.4%
 ccsd(t): done       66 out of       77 progress:   85.7%
 ccsd(t): done       67 out of       77 progress:   87.0%
 ccsd(t): done       68 out of       77 progress:   88.3%
 ccsd(t): done       69 out of       77 progress:   89.6%
 ccsd(t): done       70 out of       77 progress:   90.9%
 ccsd(t): done       71 out of       77 progress:   92.2%
 ccsd(t): done       72 out of       77 progress:   93.5%
 ccsd(t): done       73 out of       77 progress:   94.8%
 ccsd(t): done       74 out of       77 progress:   96.1%
 ccsd(t): done       75 out of       77 progress:   97.4%
 ccsd(t): done       76 out of       77 progress:   98.7%
 ccsd(t): done       77 out of       77 progress:  100.0%
 Time for integral evaluation pass     1        1.56
 Time for triples evaluation pass      1        1.24

 pseudo-e(mp4)  -0.58456902562281E-02
 pseudo-e(mp5)   0.40987899066398E-03
        e(t)    -0.54358112655642E-02

 --------------
 CCSD(T) Energy
 --------------
 Reference energy:                     -76.041237566523421

 CCSD corr. energy:                     -0.230875774156470
 T(CCSD) corr. energy:                  -0.005845690256228
 Total CCSD+T(CCSD) energy:            -76.277959030936117

 CCSD corr. energy:                     -0.230875774156470
 (T) corr. energy:                      -0.005435811265564
 Total CCSD(T) energy:                 -76.277549151945450

 routine      calls  cpu(0)   cpu-min  cpu-ave  cpu-max   i/o 
 aoccsd          1     0.02     0.02     0.02     0.02    0.00
 iterdrv         1     0.10     0.10     0.10     0.10    0.00
 pampt          14     0.09     0.09     0.09     0.09    0.00
 t2pm           14     0.23     0.23     0.23     0.23    0.00
 sxy            14     0.61     0.15     0.39     0.61    0.00
 ints        68911     0.58     0.56     0.57     0.59    0.00
 f_write       186     0.07     0.06     0.06     0.08    0.00
 t2eri        1302     0.97     0.91     0.94     0.97    0.00
 idx2         1302     3.49     3.49     3.77     4.06    0.00
 idx34          14     0.02     0.01     0.01     0.02    0.00
 ht2pm          14     0.09     0.09     0.09     0.09    0.00
 itm            14     0.88     0.88     0.88     0.88    0.00
 pdiis          14     0.01     0.00     0.01     0.01    0.00
 r_read       1209     0.12     0.09     0.10     0.12    0.00
 triples         1     0.00     0.00     0.00     0.00    0.00
 rdtrpo          1     0.01     0.01     0.01     0.01    0.00
 trpmos          1     1.56     1.56     1.56     1.56    0.00
 trpdrv          1     0.76     0.69     0.76     0.78    0.00
 dovvv        1410     0.35     0.33     0.36     0.41    0.00
 doooo        1410     0.04     0.04     0.04     0.04    0.00
 tengy        1175     0.08     0.08     0.08     0.10    0.00
 Total                10.05    10.05    10.05    10.06    0.00

 Task  times  cpu:       12.2s     wall:       12.2s


                                NWChem Input Module
                                -------------------


 Summary of allocated global arrays
-----------------------------------
  No active global arrays


MA_summarize_allocated_blocks: starting scan ...
MA_summarize_allocated_blocks: scan completed: 0 heap blocks, 0 stack blocks
MA usage statistics:

	allocation statistics:
					      heap	     stack
					      ----	     -----
	current number of blocks	         0	         0
	maximum number of blocks	        18	        42
	current total bytes		         0	         0
	maximum total bytes		   8936432	7731415912
	maximum total K-bytes		      8937	   7731416
	maximum total M-bytes		         9	      7732


                                     CITATION
                                     --------
                Please cite the following reference when publishing
                           results obtained with NWChem:

          E. Apra, E. J. Bylaska, W. A. de Jong, N. Govind, K. Kowalski,
       T. P. Straatsma, M. Valiev, H. J. J. van Dam, Y. Alexeev, J. Anchell,
       V. Anisimov, F. W. Aquino, R. Atta-Fynn, J. Autschbach, N. P. Bauman,
     J. C. Becca, D. E. Bernholdt, K. Bhaskaran-Nair, S. Bogatko, P. Borowski,
         J. Boschen, J. Brabec, A. Bruner, E. Cauet, Y. Chen, G. N. Chuev,
      C. J. Cramer, J. Daily, M. J. O. Deegan, T. H. Dunning Jr., M. Dupuis,
   K. G. Dyall, G. I. Fann, S. A. Fischer, A. Fonari, H. Fruchtl, L. Gagliardi,
      J. Garza, N. Gawande, S. Ghosh, K. Glaesemann, A. W. Gotz, J. Hammond,
       V. Helms, E. D. Hermes, K. Hirao, S. Hirata, M. Jacquelin, L. Jensen,
   B. G. Johnson, H. Jonsson, R. A. Kendall, M. Klemm, R. Kobayashi, V. Konkov,
      S. Krishnamoorthy, M. Krishnan, Z. Lin, R. D. Lins, R. J. Littlefield,
      A. J. Logsdail, K. Lopata, W. Ma, A. V. Marenich, J. Martin del Campo,
   D. Mejia-Rodriguez, J. E. Moore, J. M. Mullin, T. Nakajima, D. R. Nascimento,
    J. A. Nichols, P. J. Nichols, J. Nieplocha, A. Otero-de-la-Roza, B. Palmer,
    A. Panyala, T. Pirojsirikul, B. Peng, R. Peverati, J. Pittner, L. Pollack,
   R. M. Richard, P. Sadayappan, G. C. Schatz, W. A. Shelton, D. W. Silverstein,
   D. M. A. Smith, T. A. Soares, D. Song, M. Swart, H. L. Taylor, G. S. Thomas,
            V. Tipparaju, D. G. Truhlar, K. Tsemekhman, T. Van Voorhis,
      A. Vazquez-Mayagoitia, P. Verma, O. Villa, A. Vishnu, K. D. Vogiatzis,
        D. Wang, J. H. Weare, M. J. Williamson, T. L. Windus, K. Wolinski,
        A. T. Wong, Q. Wu, C. Yang, Q. Yu, M. Zacharias, Z. Zhang, Y. Zhao,
                                and R. J. Harrison
                        "NWChem: Past, present, and future
                         J. Chem. Phys. 152, 184102 (2020)
                               doi:10.1063/5.0004997

                                      AUTHORS
                                      -------
  E. Apra, E. J. Bylaska, N. Govind, K. Kowalski, M. Valiev, D. Mejia-Rodriguez,
       A. Kunitsa, N. P. Bauman, A. Panyala, W. A. de Jong, T. P. Straatsma,
   H. J. J. van Dam, D. Wang, T. L. Windus, J. Hammond, J. Autschbach, A. Woods,
    K. Bhaskaran-Nair, J. Brabec, K. Lopata, S. A. Fischer, S. Krishnamoorthy,
     M. Jacquelin, W. Ma, M. Klemm, O. Villa, Y. Chen, V. Anisimov, F. Aquino,
     S. Hirata, M. T. Hackler, E. Hermes, L. Jensen, J. E. Moore, J. C. Becca,
      V. Konjkov, T. Risthaus, M. Malagoli, A. Marenich, A. Otero-de-la-Roza,
        J. Mullin, P. Nichols, R. Peverati, J. Pittner, Y. Zhao, P.-D. Fan,
        A. Fonari, M. J. Williamson, R. J. Harrison, J. R. Rehr, M. Dupuis,
     D. Silverstein, D. M. A. Smith, J. Nieplocha, V. Tipparaju, M. Krishnan,
     B. E. Van Kuiken, A. Vazquez-Mayagoitia, M. Swart, Q. Wu, T. Van Voorhis,
     A. A. Auer, M. Nooijen, L. D. Crosby, E. Brown, G. Cisneros, G. I. Fann,
   H. Fruchtl, J. Garza, K. Hirao, R. A. Kendall, J. A. Nichols, K. Tsemekhman,
    K. Wolinski, J. Anchell, D. E. Bernholdt, P. Borowski, T. Clark, D. Clerc,
   H. Dachsel, M. J. O. Deegan, K. Dyall, D. Elwood, E. Glendening, M. Gutowski,
   A. C. Hess, J. Jaffe, B. G. Johnson, J. Ju, R. Kobayashi, R. Kutteh, Z. Lin,
   R. Littlefield, X. Long, B. Meng, T. Nakajima, S. Niu, L. Pollack, M. Rosing,
   K. Glaesemann, G. Sandrone, M. Stave, H. Taylor, G. Thomas, J. H. van Lenthe,
                               A. T. Wong, Z. Zhang.

 Total times  cpu:       12.3s     wall:       12.3s
