 argument  1 = H2O_H2O_distance_1.75_2.25_0.75/input_dimer.txt
                                         
                                         


             Northwest Computational Chemistry Package (NWChem) 7.2.3
             --------------------------------------------------------


                    Environmental Molecular Sciences Laboratory
                       Pacific Northwest National Laboratory
                                Richland, WA 99352

                              Copyright (c) 1994-2022
                       Pacific Northwest National Laboratory
                            Battelle Memorial Institute

             NWChem is an open-source computational chemistry package
                        distributed under the terms of the
                      Educational Community License (ECL) 2.0
             A copy of the license is included with this distribution
                              in the LICENSE.TXT file

                                  ACKNOWLEDGMENT
                                  --------------

            This software and its documentation were developed at the
            EMSL at Pacific Northwest National Laboratory, a multiprogram
            national laboratory, operated for the U.S. Department of Energy
            by Battelle under Contract Number DE-AC05-76RL01830. Support
            for this work was provided by the Department of Energy Office
            of Biological and Environmental Research, Office of Basic
            Energy Sciences, and the Office of Advanced Scientific Computing.


           Job information
           ---------------

    hostname        = visitor-wireless1-147-155-221-104.ameslab.gov
    program         = nwchem
    date            = Wed Jun 11 14:07:58 2025

    compiled        = Thu_Dec_26_16:03:44_2024
    source          = /private/tmp/nwchem-20241226-24280-orrtsi/nwchem-7.2.3
    nwchem branch   = 7.2.3
    nwchem revision = d690e065
    ga revision     = 5.8.0
    use scalapack   = T
    input           = H2O_H2O_distance_1.75_2.25_0.75/input_dimer.txt
    prefix          = input_dimer.
    data base       = ./input_dimer.db
    status          = restart
    nproc           =        1
    time left       =     -1s



           Memory information
           ------------------

    heap     =   26214396 doubles =    200.0 Mbytes
    stack    =   26214401 doubles =    200.0 Mbytes
    global   =   52428800 doubles =    400.0 Mbytes (distinct from heap & stack)
    total    =  104857597 doubles =    800.0 Mbytes
    verify   = yes
    hardfail = no 


           Directory information
           ---------------------

  0 permanent = .
  0 scratch   = .


           Previous task information
           -------------------------

    Theory    = ccsd(t)                         
    Operation = energy                        
    Status    = ok                            
    Qmmm      = F
    Ignore    = F


           Geometries in the database
           --------------------------

       Name                              Natoms  Last Modified
       --------------------------------  ------  ------------------------
    1  geometry                               6  Wed Jun 11 14:07:08 2025  

  The geometry named "geometry" is the default for restart



           Basis sets in the database
           --------------------------

       Name                              Natoms  Last Modified
        --------------------------------  ------  ------------------------
    1  ao basis                               2  Wed Jun 11 14:07:08 2025  

  The basis set named "ao basis" is the default AO basis for restart




                                NWChem Input Module
                                -------------------



 Scaling coordinates for geometry "geometry" by  1.889725989
 (inverse scale =  0.529177249)

 C1  symmetry detected

          ------
          auto-z
          ------
  autoz: The atoms group into disjoint clusters
 cluster   1:    1    2    3
 cluster   2:    4    5    6
 Connecting clusters   1   2 via atoms    3    4 r = 2.03
  autoz: regenerating connections with new bonds
  no constraints, skipping    0.0000000000000000     
  no constraints, skipping    0.0000000000000000     


                             Geometry "geometry" -> ""
                             -------------------------

 Output coordinates in angstroms (scale by  1.889725989 to convert to a.u.)

  No.       Tag          Charge          X              Y              Z
 ---- ---------------- ---------- -------------- -------------- --------------
    1 O                    8.0000    -0.10310977    -1.54322817     0.01777786
    2 H                    1.0000     0.83246406    -1.78321238     0.00050122
    3 H                    1.0000    -0.10850411    -0.60768179    -0.22280285
    4 O                    8.0000    -0.08292613     1.40411574     0.03379361
    5 H                    1.0000     0.85264770     1.16413153     0.01651696
    6 H                    1.0000    -0.08832047     2.33966211    -0.20678711

      Atomic Mass 
      ----------- 

      O                 15.994910
      H                  1.007825


 Effective nuclear repulsion energy (a.u.)      36.3867335248

            Nuclear Dipole moment (a.u.) 
            ----------------------------
        X                 Y               Z
 ---------------- ---------------- ----------------
     0.0000000000    -0.0000000000    -0.0000000000



                                Z-matrix (autoz)
                                -------- 

 Units are Angstrom for bonds and degrees for angles

      Type          Name      I     J     K     L     M      Value
      ----------- --------  ----- ----- ----- ----- ----- ----------
    1 Stretch                  1     2                       0.96602
    2 Stretch                  1     3                       0.96600
    3 Stretch                  3     4                       2.02826
    4 Stretch                  4     5                       0.96602
    5 Stretch                  4     6                       0.96600
    6 Bend                     1     3     4               158.28536
    7 Bend                     2     1     3               103.97798
    8 Bend                     3     4     5                76.32232
    9 Bend                     3     4     6               158.28536
   10 Bend                     5     4     6               103.97798
   11 Torsion                  1     3     4     5          86.51238
   12 Torsion                  1     3     4     6        -180.00000
   13 Torsion                  2     1     3     4         -91.92361


            XYZ format geometry
            -------------------
     6
 geometry
 O                    -0.10310977    -1.54322817     0.01777786
 H                     0.83246406    -1.78321238     0.00050122
 H                    -0.10850411    -0.60768179    -0.22280285
 O                    -0.08292613     1.40411574     0.03379361
 H                     0.85264770     1.16413153     0.01651696
 H                    -0.08832047     2.33966211    -0.20678711

 ==============================================================================
                                internuclear distances
 ------------------------------------------------------------------------------
       center one      |      center two      | atomic units |  angstroms
 ------------------------------------------------------------------------------
    2 H                |   1 O                |     1.82551  |     0.96602
    3 H                |   1 O                |     1.82547  |     0.96600
    5 H                |   4 O                |     1.82551  |     0.96602
    6 H                |   4 O                |     1.82547  |     0.96600
 ------------------------------------------------------------------------------
                         number of included internuclear distances:          4
 ==============================================================================



 ==============================================================================
                                 internuclear angles
 ------------------------------------------------------------------------------
        center 1       |       center 2       |       center 3       |  degrees
 ------------------------------------------------------------------------------
    2 H                |   1 O                |   3 H                |   103.98
    5 H                |   4 O                |   6 H                |   103.98
 ------------------------------------------------------------------------------
                            number of included internuclear angles:          2
 ==============================================================================



  library name resolved from: .nwchemrc
  library file name is: </opt/homebrew/Cellar/nwchem/7.2.3_1/share/nwchem/libraries/>
  
                      Basis "ao basis" -> "" (spherical)
                      -----
  O (Oxygen)
  ----------
            Exponent  Coefficients 
       -------------- ---------------------------------------------------------
  1 S  1.17200000E+04  0.000710
  1 S  1.75900000E+03  0.005470
  1 S  4.00800000E+02  0.027837
  1 S  1.13700000E+02  0.104800
  1 S  3.70300000E+01  0.283062
  1 S  1.32700000E+01  0.448719
  1 S  5.02500000E+00  0.270952
  1 S  1.01300000E+00  0.015458

  2 S  1.17200000E+04 -0.000160
  2 S  1.75900000E+03 -0.001263
  2 S  4.00800000E+02 -0.006267
  2 S  1.13700000E+02 -0.025716
  2 S  3.70300000E+01 -0.070924
  2 S  1.32700000E+01 -0.165411
  2 S  5.02500000E+00 -0.116955
  2 S  1.01300000E+00  0.557368

  3 S  3.02300000E-01  1.000000

  4 S  7.89600000E-02  1.000000

  5 P  1.77000000E+01  0.043018
  5 P  3.85400000E+00  0.228913
  5 P  1.04600000E+00  0.508728

  6 P  2.75300000E-01  1.000000

  7 P  6.85600000E-02  1.000000

  8 D  1.18500000E+00  1.000000

  9 D  3.32000000E-01  1.000000

  H (Hydrogen)
  ------------
            Exponent  Coefficients 
       -------------- ---------------------------------------------------------
  1 S  1.30100000E+01  0.019685
  1 S  1.96200000E+00  0.137977
  1 S  4.44600000E-01  0.478148

  2 S  1.22000000E-01  1.000000

  3 S  2.97400000E-02  1.000000

  4 P  7.27000000E-01  1.000000

  5 P  1.41000000E-01  1.000000



 Summary of "ao basis" -> "" (spherical)
 ------------------------------------------------------------------------------
       Tag                 Description            Shells   Functions and Types
 ---------------- ------------------------------  ------  ---------------------
 O                        aug-cc-pvdz                9       23   4s3p2d
 H                        aug-cc-pvdz                5        9   3s2p


                                 NWChem SCF Module
                                 -----------------



  ao basis        = "ao basis"
  functions       =    82
  atoms           =     6
  closed shells   =    10
  open shells     =     0
  charge          =   0.00
  wavefunction    = RHF 
  input vectors   = ./input_dimer.movecs
  output vectors  = ./input_dimer.movecs
  use symmetry    = F
  symmetry adapt  = F


 Summary of "ao basis" -> "ao basis" (spherical)
 ------------------------------------------------------------------------------
       Tag                 Description            Shells   Functions and Types
 ---------------- ------------------------------  ------  ---------------------
 O                        aug-cc-pvdz                9       23   4s3p2d
 H                        aug-cc-pvdz                5        9   3s2p



 Forming initial guess at       0.0s


 Loading old vectors from job with title :




 Starting SCF solution at       0.0s



 ----------------------------------------------
         Quadratically convergent ROHF

 Convergence threshold     :          1.000E-06
 Maximum no. of iterations :           30
 Final Fock-matrix accuracy:          1.000E-08
 ----------------------------------------------


 Integral file          = ./input_dimer.aoints.0
 Record size in doubles =  65536        No. of integs per rec  =  43688
 Max. records in memory =    184        Max. records in file   =   4242
 No. of bits per label  =      8        No. of bits per value  =     64


 #quartets = 2.641D+05 #integrals = 5.260D+06 #direct =  0.0% #cached =100.0%


              iter       energy          gnorm     gmax       time
             ----- ------------------- --------- --------- --------
                 1     -152.0788385513  1.90D-01  4.04D-02      0.3
                 2     -152.0813104687  7.63D-03  1.56D-03      0.4
                 3     -152.0813189066  5.76D-05  9.44D-06      0.6
                 4     -152.0813189070  2.67D-08  5.31D-09      0.9


       Final RHF  results 
       ------------------ 

         Total SCF energy =   -152.081318906951
      One-electron energy =   -281.905565244301
      Two-electron energy =     93.437512812541
 Nuclear repulsion energy =     36.386733524809

        Time for solution =      0.9s


             Final eigenvalues
             -----------------

              1      
    1  -20.6016
    2  -20.5603
    3   -1.3780
    4   -1.3354
    5   -0.7439
    6   -0.6953
    7   -0.6097
    8   -0.5677
    9   -0.5320
   10   -0.4913
   11    0.0244
   12    0.0465
   13    0.0674
   14    0.0855
   15    0.1667
   16    0.1831
   17    0.2007
   18    0.2126
   19    0.2266
   20    0.2539

                       ROHF Final Molecular Orbital Analysis
                       -------------------------------------

 Vector    2  Occ=2.000000D+00  E=-2.056029D+01
              MO Center= -1.0D-01, -1.5D+00,  1.8D-02, r^2= 1.5D-02
   Bfn.  Coefficient  Atom+Function         Bfn.  Coefficient  Atom+Function  
  ----- ------------  ---------------      ----- ------------  ---------------
     1      1.001532  1 O  s          

 Vector    3  Occ=2.000000D+00  E=-1.378004D+00
              MO Center=  4.9D-02,  1.5D+00, -4.0D-03, r^2= 6.0D-01
   Bfn.  Coefficient  Atom+Function         Bfn.  Coefficient  Atom+Function  
  ----- ------------  ---------------      ----- ------------  ---------------
    43      0.444513  4 O  s                 44      0.387613  4 O  s          
    65      0.202585  5 H  s                 74      0.200215  6 H  s          

 Vector    4  Occ=2.000000D+00  E=-1.335421D+00
              MO Center=  3.1D-02, -1.4D+00, -1.8D-02, r^2= 6.2D-01
   Bfn.  Coefficient  Atom+Function         Bfn.  Coefficient  Atom+Function  
  ----- ------------  ---------------      ----- ------------  ---------------
     2      0.444984  1 O  s                  3      0.385348  1 O  s          
    24      0.202451  2 H  s                 33      0.199190  3 H  s          

 Vector    5  Occ=2.000000D+00  E=-7.438812D-01
              MO Center=  7.2D-02,  1.3D+00, -1.8D-02, r^2= 1.4D+00
   Bfn.  Coefficient  Atom+Function         Bfn.  Coefficient  Atom+Function  
  ----- ------------  ---------------      ----- ------------  ---------------
    47      0.385760  4 O  py                74      0.341920  6 H  s          
    65     -0.316087  5 H  s                 46     -0.270486  4 O  px         
    50      0.163118  4 O  py         

 Vector    6  Occ=2.000000D+00  E=-6.953397D-01
              MO Center=  7.0D-02, -1.1D+00, -2.4D-02, r^2= 1.6D+00
   Bfn.  Coefficient  Atom+Function         Bfn.  Coefficient  Atom+Function  
  ----- ------------  ---------------      ----- ------------  ---------------
     6      0.362859  1 O  py                24     -0.329883  2 H  s          
    33      0.322407  3 H  s                  5     -0.292978  1 O  px         
    46     -0.163230  4 O  px         

 Vector    7  Occ=2.000000D+00  E=-6.097488D-01
              MO Center= -9.8D-02,  1.2D+00,  3.5D-02, r^2= 1.3D+00
   Bfn.  Coefficient  Atom+Function         Bfn.  Coefficient  Atom+Function  
  ----- ------------  ---------------      ----- ------------  ---------------
    46      0.420039  4 O  px                47      0.307232  4 O  py         
    44     -0.297263  4 O  s                 49      0.250643  4 O  px         
    65      0.212942  5 H  s                 74      0.200815  6 H  s          
    50      0.188210  4 O  py         

 Vector    8  Occ=2.000000D+00  E=-5.676787D-01
              MO Center= -1.3D-01, -1.4D+00,  3.1D-02, r^2= 1.3D+00
   Bfn.  Coefficient  Atom+Function         Bfn.  Coefficient  Atom+Function  
  ----- ------------  ---------------      ----- ------------  ---------------
     5      0.404789  1 O  px                 6      0.317805  1 O  py         
     3     -0.306496  1 O  s                  8      0.240920  1 O  px         
    33      0.207213  3 H  s                 24      0.199729  2 H  s          
     9      0.186228  1 O  py         

 Vector    9  Occ=2.000000D+00  E=-5.320207D-01
              MO Center= -5.6D-02,  1.3D+00,  2.4D-02, r^2= 1.0D+00
   Bfn.  Coefficient  Atom+Function         Bfn.  Coefficient  Atom+Function  
  ----- ------------  ---------------      ----- ------------  ---------------
    48      0.594552  4 O  pz                51      0.427570  4 O  pz         
    47      0.159623  4 O  py         

 Vector   10  Occ=2.000000D+00  E=-4.913291D-01
              MO Center= -7.1D-02, -1.5D+00,  8.9D-03, r^2= 7.3D-01
   Bfn.  Coefficient  Atom+Function         Bfn.  Coefficient  Atom+Function  
  ----- ------------  ---------------      ----- ------------  ---------------
     7      0.604007  1 O  pz                10      0.436109  1 O  pz         
     6      0.155881  1 O  py         

 Vector   11  Occ=0.000000D+00  E= 2.435423D-02
              MO Center=  1.3D+00,  1.5D+00, -5.1D-02, r^2= 1.2D+01
   Bfn.  Coefficient  Atom+Function         Bfn.  Coefficient  Atom+Function  
  ----- ------------  ---------------      ----- ------------  ---------------
    45      1.314235  4 O  s                 35      1.084513  3 H  s          
    67     -1.079577  5 H  s                 26     -0.957833  2 H  s          
    76     -0.813126  6 H  s                 75     -0.589694  6 H  s          
     4      0.497105  1 O  s                 53      0.350608  4 O  py         
    25     -0.341052  2 H  s                 66     -0.288977  5 H  s          

 Vector   12  Occ=0.000000D+00  E= 4.647616D-02
              MO Center=  6.8D-01,  9.9D-01, -1.9D-01, r^2= 1.9D+01
   Bfn.  Coefficient  Atom+Function         Bfn.  Coefficient  Atom+Function  
  ----- ------------  ---------------      ----- ------------  ---------------
    76      2.289278  6 H  s                 67     -1.790441  5 H  s          
    26     -1.407141  2 H  s                 35      0.882276  3 H  s          
    75      0.638348  6 H  s                 53     -0.626885  4 O  py         
     4      0.584768  1 O  s                 45     -0.543065  4 O  s          
    25     -0.359539  2 H  s                 52      0.348566  4 O  px         

 Vector   13  Occ=0.000000D+00  E= 6.740690D-02
              MO Center=  9.9D-01, -6.3D-01, -8.9D-02, r^2= 1.9D+01
   Bfn.  Coefficient  Atom+Function         Bfn.  Coefficient  Atom+Function  
  ----- ------------  ---------------      ----- ------------  ---------------
    67      3.675335  5 H  s                 76     -2.012505  6 H  s          
    26     -1.521190  2 H  s                  4      1.391371  1 O  s          
    35     -1.024101  3 H  s                 45     -0.722291  4 O  s          
    52     -0.503974  4 O  px                25     -0.488734  2 H  s          
    66      0.418414  5 H  s                 34     -0.207868  3 H  s          

 Vector   14  Occ=0.000000D+00  E= 8.547775D-02
              MO Center= -6.5D-01, -4.1D-01, -7.1D-01, r^2= 1.7D+01
   Bfn.  Coefficient  Atom+Function         Bfn.  Coefficient  Atom+Function  
  ----- ------------  ---------------      ----- ------------  ---------------
    35      5.057245  3 H  s                 26     -3.117050  2 H  s          
    76     -1.615881  6 H  s                  4     -1.208241  1 O  s          
    34      1.000072  3 H  s                 53      0.691830  4 O  py         
    12     -0.684885  1 O  py                11      0.514380  1 O  px         
    45     -0.461052  4 O  s                 66      0.355456  5 H  s          

 Vector   15  Occ=0.000000D+00  E= 1.666905D-01
              MO Center=  9.1D-02,  6.9D-01,  1.3D-01, r^2= 1.0D+01
   Bfn.  Coefficient  Atom+Function         Bfn.  Coefficient  Atom+Function  
  ----- ------------  ---------------      ----- ------------  ---------------
    45      3.329267  4 O  s                  4      2.149922  1 O  s          
    75     -1.403621  6 H  s                 67     -1.198333  5 H  s          
    25     -1.152443  2 H  s                 66     -1.146381  5 H  s          
    54     -0.926784  4 O  pz                52      0.819441  4 O  px         
    34     -0.693108  3 H  s                 11      0.681710  1 O  px         

 Vector   16  Occ=0.000000D+00  E= 1.830757D-01
              MO Center=  2.7D-01,  1.3D+00,  9.3D-02, r^2= 9.6D+00
   Bfn.  Coefficient  Atom+Function         Bfn.  Coefficient  Atom+Function  
  ----- ------------  ---------------      ----- ------------  ---------------
    45      2.346079  4 O  s                  4      1.545416  1 O  s          
    53      1.314728  4 O  py                75     -1.150482  6 H  s          
    67     -0.863871  5 H  s                 76     -0.811204  6 H  s          
    54      0.670851  4 O  pz                35      0.527751  3 H  s          
    34     -0.462351  3 H  s                 13      0.458643  1 O  pz         

 Vector   17  Occ=0.000000D+00  E= 2.007050D-01
              MO Center=  2.0D-01, -3.9D-01,  1.5D-02, r^2= 1.2D+01
   Bfn.  Coefficient  Atom+Function         Bfn.  Coefficient  Atom+Function  
  ----- ------------  ---------------      ----- ------------  ---------------
     4      3.180585  1 O  s                 45     -2.789208  4 O  s          
    25     -1.612775  2 H  s                 11      1.429823  1 O  px         
    34     -1.303524  3 H  s                 75      1.255522  6 H  s          
    66      1.225134  5 H  s                 52     -0.937677  4 O  px         
    26     -0.903784  2 H  s                 53     -0.893450  4 O  py         

 Vector   18  Occ=0.000000D+00  E= 2.125682D-01
              MO Center= -2.8D-01,  7.7D-01,  1.9D-02, r^2= 1.3D+01
   Bfn.  Coefficient  Atom+Function         Bfn.  Coefficient  Atom+Function  
  ----- ------------  ---------------      ----- ------------  ---------------
    66      2.552725  5 H  s                 76     -2.270441  6 H  s          
    53      2.169165  4 O  py                67      2.169454  5 H  s          
    75     -2.058044  6 H  s                 52     -2.024919  4 O  px         
    12      1.268602  1 O  py                26      0.948291  2 H  s          
    35     -0.863010  3 H  s                 81      0.653399  6 H  py         

 Vector   19  Occ=0.000000D+00  E= 2.266126D-01
              MO Center= -2.6D-01, -4.9D-01, -2.1D-01, r^2= 1.0D+01
   Bfn.  Coefficient  Atom+Function         Bfn.  Coefficient  Atom+Function  
  ----- ------------  ---------------      ----- ------------  ---------------
    13      1.332538  1 O  pz                 4     -1.136761  1 O  s          
    54     -1.001566  4 O  pz                40     -0.928371  3 H  py         
    34      0.922890  3 H  s                 53     -0.840399  4 O  py         
    12     -0.609286  1 O  py                66      0.511662  5 H  s          
    45      0.503773  4 O  s                 52     -0.358569  4 O  px         

 Vector   20  Occ=0.000000D+00  E= 2.539324D-01
              MO Center=  7.9D-01, -1.2D+00,  8.2D-02, r^2= 1.2D+01
   Bfn.  Coefficient  Atom+Function         Bfn.  Coefficient  Atom+Function  
  ----- ------------  ---------------      ----- ------------  ---------------
    67      2.640670  5 H  s                 26     -2.298171  2 H  s          
    25     -1.797695  2 H  s                 34      1.796307  3 H  s          
    76     -1.777713  6 H  s                 12     -1.716559  1 O  py         
     4      1.470750  1 O  s                 52     -0.965163  4 O  px         
    30      0.910505  2 H  px                66      0.830487  5 H  s          

 Vector   21  Occ=0.000000D+00  E= 2.648583D-01
              MO Center=  2.9D-03,  1.4D-01,  6.4D-02, r^2= 9.2D+00
   Bfn.  Coefficient  Atom+Function         Bfn.  Coefficient  Atom+Function  
  ----- ------------  ---------------      ----- ------------  ---------------
    35      2.466198  3 H  s                 53      1.269930  4 O  py         
    52      1.196771  4 O  px                12      1.054600  1 O  py         
    11      0.909971  1 O  px                67     -0.869000  5 H  s          
    66     -0.792477  5 H  s                 71     -0.763120  5 H  px         
    26     -0.745147  2 H  s                 34     -0.684910  3 H  s          

 Vector   22  Occ=0.000000D+00  E= 2.733967D-01
              MO Center= -8.3D-01, -7.8D-01, -2.8D-02, r^2= 8.6D+00
   Bfn.  Coefficient  Atom+Function         Bfn.  Coefficient  Atom+Function  
  ----- ------------  ---------------      ----- ------------  ---------------
    35      3.315057  3 H  s                 34      2.581648  3 H  s          
     4     -2.008068  1 O  s                 11      1.876274  1 O  px         
    25     -1.876236  2 H  s                 12     -1.791916  1 O  py         
    26     -1.788153  2 H  s                 75     -1.035756  6 H  s          
    40     -0.935964  3 H  py                53      0.693617  4 O  py         

 Vector   23  Occ=0.000000D+00  E= 3.124932D-01
              MO Center= -2.1D-01,  4.6D-01,  7.4D-02, r^2= 6.8D+00
   Bfn.  Coefficient  Atom+Function         Bfn.  Coefficient  Atom+Function  
  ----- ------------  ---------------      ----- ------------  ---------------
    45      4.418213  4 O  s                 66     -2.220596  5 H  s          
    75     -1.550159  6 H  s                 35     -1.267264  3 H  s          
    25     -1.232182  2 H  s                 53     -0.962374  4 O  py         
    40     -0.637936  3 H  py                31     -0.614273  2 H  py         
    26      0.598396  2 H  s                  4      0.503501  1 O  s          

 Vector   24  Occ=0.000000D+00  E= 3.223832D-01
              MO Center=  6.4D-01, -3.2D-01, -7.2D-02, r^2= 7.2D+00
   Bfn.  Coefficient  Atom+Function         Bfn.  Coefficient  Atom+Function  
  ----- ------------  ---------------      ----- ------------  ---------------
     4      1.630196  1 O  s                 25     -1.502967  2 H  s          
    53     -1.449052  4 O  py                75      1.244392  6 H  s          
    45     -1.128133  4 O  s                 35     -0.961174  3 H  s          
    67      0.813096  5 H  s                 34     -0.728541  3 H  s          
    11      0.603163  1 O  px                30     -0.482639  2 H  px         

 Vector   25  Occ=0.000000D+00  E= 3.491223D-01
              MO Center=  1.8D-01,  9.1D-01,  1.1D-01, r^2= 6.3D+00
   Bfn.  Coefficient  Atom+Function         Bfn.  Coefficient  Atom+Function  
  ----- ------------  ---------------      ----- ------------  ---------------
    53      1.868607  4 O  py                75     -1.636031  6 H  s          
     4      1.330568  1 O  s                 82      0.726366  6 H  pz         
    73     -0.708404  5 H  pz                13      0.583517  1 O  pz         
    41     -0.563245  3 H  pz                12      0.558503  1 O  py         
    76     -0.460508  6 H  s                 40      0.430839  3 H  py         

 Vector   26  Occ=0.000000D+00  E= 3.774493D-01
              MO Center=  4.8D-01,  2.4D-01,  6.0D-02, r^2= 6.6D+00
   Bfn.  Coefficient  Atom+Function         Bfn.  Coefficient  Atom+Function  
  ----- ------------  ---------------      ----- ------------  ---------------
     4      1.692846  1 O  s                 53      1.522322  4 O  py         
    75     -1.429867  6 H  s                 45      1.067582  4 O  s          
    73      1.036183  5 H  pz                32      0.838482  2 H  pz         
    34     -0.791204  3 H  s                 54     -0.711380  4 O  pz         
    12      0.615370  1 O  py                40      0.453507  3 H  py         

 Vector   27  Occ=0.000000D+00  E= 3.927346D-01
              MO Center= -2.6D-01,  2.2D-01, -2.2D-01, r^2= 8.0D+00
   Bfn.  Coefficient  Atom+Function         Bfn.  Coefficient  Atom+Function  
  ----- ------------  ---------------      ----- ------------  ---------------
     4      4.499410  1 O  s                 45      3.537715  4 O  s          
    75     -2.974300  6 H  s                 34     -2.722230  3 H  s          
    53      1.726894  4 O  py                25     -1.434875  2 H  s          
    35     -1.231849  3 H  s                 12      0.949424  1 O  py         
    66     -0.874439  5 H  s                 82     -0.596034  6 H  pz         

 Vector   28  Occ=0.000000D+00  E= 4.017478D-01
              MO Center=  3.9D-01, -1.8D-01,  2.3D-01, r^2= 7.4D+00
   Bfn.  Coefficient  Atom+Function         Bfn.  Coefficient  Atom+Function  
  ----- ------------  ---------------      ----- ------------  ---------------
     4      5.579918  1 O  s                 45     -3.704608  4 O  s          
    25     -2.403733  2 H  s                 34     -2.180175  3 H  s          
    66      1.749773  5 H  s                 11      1.318426  1 O  px         
    12      1.306576  1 O  py                40      1.289649  3 H  py         
    52     -1.234750  4 O  px                72      0.983290  5 H  py         

 Vector   29  Occ=0.000000D+00  E= 4.436085D-01
              MO Center=  5.8D-01, -5.2D-01, -3.7D-03, r^2= 6.9D+00
   Bfn.  Coefficient  Atom+Function         Bfn.  Coefficient  Atom+Function  
  ----- ------------  ---------------      ----- ------------  ---------------
     4      1.886689  1 O  s                 34     -1.251614  3 H  s          
    32      1.206268  2 H  pz                25     -1.027186  2 H  s          
    13     -0.882950  1 O  pz                73     -0.770433  5 H  pz         
    52     -0.669145  4 O  px                80      0.657117  6 H  px         
    54      0.646127  4 O  pz                35     -0.597472  3 H  s          

 Vector   30  Occ=0.000000D+00  E= 4.677659D-01
              MO Center=  2.5D-01,  5.0D-01, -2.0D-01, r^2= 8.1D+00
   Bfn.  Coefficient  Atom+Function         Bfn.  Coefficient  Atom+Function  
  ----- ------------  ---------------      ----- ------------  ---------------
    80      1.567507  6 H  px                31      1.270849  2 H  py         
    66     -1.183759  5 H  s                 52     -1.097570  4 O  px         
    12     -0.958576  1 O  py                73      0.721142  5 H  pz         
    54     -0.626318  4 O  pz                45      0.615754  4 O  s          
    72     -0.581261  5 H  py                75      0.575760  6 H  s          

 Vector   31  Occ=0.000000D+00  E= 5.030550D-01
              MO Center= -1.0D-01,  1.3D+00, -2.5D-01, r^2= 6.4D+00
   Bfn.  Coefficient  Atom+Function         Bfn.  Coefficient  Atom+Function  
  ----- ------------  ---------------      ----- ------------  ---------------
    45      3.003945  4 O  s                 53     -2.850362  4 O  py         
    66     -2.043801  5 H  s                 34     -1.447627  3 H  s          
    82      1.412594  6 H  pz                25     -1.109097  2 H  s          
    40     -0.984242  3 H  py                52      0.957610  4 O  px         
    54     -0.901760  4 O  pz                35     -0.879034  3 H  s          


 center of mass
 --------------
 x =  -0.07741731 y =  -0.05789049 z =   0.02146104

 moments of inertia (a.u.)
 ------------------
         286.275000858329           0.000000000000           0.000000000000
           0.000000000000           6.365451269469          -0.000000000000
           0.000000000000          -0.000000000000         291.839990912598

  Mulliken analysis of the total density
  --------------------------------------

    Atom       Charge   Shell Charges
 -----------   ------   -------------------------------------------------------
    1 O    8     8.34   2.00  0.84  0.83  0.09  2.82  1.65  0.11  0.01 -0.02
    2 H    1     0.86   0.72  0.04 -0.00  0.08  0.02
    3 H    1     0.79   0.71  0.02 -0.00  0.08 -0.03
    4 O    8     8.38   2.00  0.84  0.83  0.10  2.82  1.66  0.14  0.01 -0.02
    5 H    1     0.83   0.72  0.01 -0.01  0.08  0.02
    6 H    1     0.81   0.72 -0.00 -0.01  0.08  0.01

       Multipole analysis of the density wrt the origin
       ------------------------------------------------

     L   x y z        total         open         nuclear
     -   - - -        -----         ----         -------
     0   0 0 0      0.000000      0.000000     20.000000

     1   1 0 0      1.187441      0.000000      0.000000
     1   0 1 0      1.081062      0.000000     -0.000000
     1   0 0 1     -0.328198      0.000000     -0.000000

     2   2 0 0     -8.189681      0.000000      5.641014
     2   1 1 0     -1.349604      0.000000     -1.039530
     2   1 0 1      0.109396      0.000000      0.070905
     2   0 2 0     -7.613276      0.000000    161.423170
     2   0 1 1     -0.782143      0.000000     -0.606959
     2   0 0 2    -11.081668      0.000000      0.372603


 Parallel integral file used     121 records with       0 large values



                   Four-Index Transformation
                   -------------------------
          Number of basis functions:             82
          Number of shells:                      38
          Number of occupied orbitals:           10
          Number of occ. correlated orbitals:    10
          Block length:                          16
          Superscript MO index range:      1 -   10
          Subscript MO index range:        1 -   82
          MO coefficients read from:  ./input_dimer.movecs     
          Number of operator matrices in core:  110
          Half-transformed integrals produced

     Pass:    1     Index range:    1  -   10     Time:      1.08
 ------------------------------------------
 MP2 Energy (coupled cluster initial guess)
 ------------------------------------------
 Reference energy:           -152.081318906950969
 MP2 Corr. energy:             -0.447754284797078
 Total MP2 energy:           -152.529073191748040


 ****************************************************************************
              the segmented parallel ccsd program:    1 nodes
 ****************************************************************************




 level of theory    ccsd(t)
 number of core         0
 number of occupied    10
 number of virtual     72
 number of deleted      0
 total functions       82
 number of shells      38
 basis label          566



   ***** ccsd parameters *****
   iprt   =     0
   convi  =  0.100E-05
   maxit  =    20
   mxvec  =     5
 memory             52411036
  Using  1 OpenMP thread(s) in CCSD
  avail0,avail1,avail0-avail1                  2218                 2218                    0
  avail0,avail1,avail0-avail1                  2218                 2218                    0
  avail0,avail1,avail0-avail1                  2218                 2218                    0
  avail0,avail1,avail0-avail1                  2218                 2218                    0
  Restarting from old vector in ./input_dimer.t2


-------------------------------------------------------------------------
 iter     correlation     delta       rms       T2     Non-T2      Main
             energy      energy      error      ampl     ampl      Block
                                                time     time      time
-------------------------------------------------------------------------
   1     -0.4590644059 -4.591D-01  9.196D-02     2.89     0.00     2.74
   2     -0.4580792261  9.852D-04  2.194D-01     0.78     0.00     0.63
   3     -0.4615346719 -3.455D-03  2.348D-02     0.76     0.00     0.61
   4     -0.4620806148 -5.459D-04  2.484D-02     0.76     0.00     0.61
   5     -0.4622920756 -2.115D-04  3.184D-03     0.76     0.00     0.61
   6     -0.4623596647 -6.759D-05  4.374D-04     0.75     0.00     0.61
   7     -0.4623719372 -1.227D-05  1.505D-04     0.75     0.00     0.61
   8     -0.4623714596  4.777D-07  7.819D-05     0.75     0.00     0.61
   9     -0.4623728583 -1.399D-06  2.164D-05     0.80     0.00     0.64
  10     -0.4623723040  5.543D-07  2.119D-05     0.78     0.00     0.63
  11     -0.4623722537  5.022D-08  1.604D-05     0.75     0.00     0.61
  12     -0.4623721929  6.085D-08  7.358D-06     0.78     0.00     0.62
  13     -0.4623721609  3.195D-08  1.046D-06     0.76     0.00     0.61
  14     -0.4623721597  1.227D-09  4.353D-07     0.75     0.00     0.61
                  *************converged*************
-------------------------------------------------------------------------

 -----------
 CCSD Energy
 -----------
 Reference energy:            -152.081318906950969
 CCSD corr. energy:             -0.462372159705343
 Total CCSD energy:           -152.543691066656322


 --------------------------------
 Spin Component Scaled (SCS) CCSD
 --------------------------------
 Same spin contribution:                 -0.101761409249167
 Same spin scaling factor:                1.130000000000000
 Opposite spin contribution:             -0.360610750456176
 Opposite spin scaling fact.:             1.270000000000000
 SCS-CCSD correlation energy:            -0.572966045530902
 Total SCS-CCSD energy:                -152.654284952481845
 memory             52411036


*********triples calculation*********

nkpass=    1; nvpass=    1; memdrv=         271656; memtrn=         680678; memavail=       52410300
 memory available/node                       52410300
 total number of virtual orbitals        72
 number of virtuals per integral pass    72
 number of integral evaluations           1
 number of occupied per triples pass     10
 number of triples passes                 1

 commencing integral evaluation        1 at          14.89
  symmetry use  F
task         2 out of       741 done   0%  at       0.0 secs
task        38 out of       741 done   5%  at       0.2 secs
task        75 out of       741 done  10%  at       0.4 secs
task       112 out of       741 done  15%  at       0.6 secs
task       149 out of       741 done  20%  at       0.7 secs
task       186 out of       741 done  25%  at       0.9 secs
task       223 out of       741 done  30%  at       1.0 secs
task       260 out of       741 done  35%  at       1.1 secs
task       297 out of       741 done  40%  at       1.2 secs
task       334 out of       741 done  45%  at       1.4 secs
task       371 out of       741 done  50%  at       1.5 secs
task       408 out of       741 done  55%  at       1.6 secs
task       445 out of       741 done  60%  at       1.7 secs
task       482 out of       741 done  65%  at       1.7 secs
task       519 out of       741 done  70%  at       1.8 secs
task       556 out of       741 done  75%  at       1.9 secs
task       593 out of       741 done  80%  at       2.0 secs
task       630 out of       741 done  85%  at       2.0 secs
task       667 out of       741 done  90%  at       2.1 secs
task       704 out of       741 done  95%  at       2.2 secs
task       741 out of       741 done 100%  at       2.3 secs
 commencing triples evaluation - blocking       1
 ccsd(t): done        1 out of       72 progress:    1.4%
 ccsd(t): done        2 out of       72 progress:    2.8%
 ccsd(t): done        3 out of       72 progress:    4.2%
 ccsd(t): done        4 out of       72 progress:    5.6%
 ccsd(t): done        5 out of       72 progress:    6.9%
 ccsd(t): done        6 out of       72 progress:    8.3%
 ccsd(t): done        7 out of       72 progress:    9.7%
 ccsd(t): done        8 out of       72 progress:   11.1%
 ccsd(t): done        9 out of       72 progress:   12.5%
 ccsd(t): done       10 out of       72 progress:   13.9%
 ccsd(t): done       11 out of       72 progress:   15.3%
 ccsd(t): done       12 out of       72 progress:   16.7%
 ccsd(t): done       13 out of       72 progress:   18.1%
 ccsd(t): done       14 out of       72 progress:   19.4%
 ccsd(t): done       15 out of       72 progress:   20.8%
 ccsd(t): done       16 out of       72 progress:   22.2%
 ccsd(t): done       17 out of       72 progress:   23.6%
 ccsd(t): done       18 out of       72 progress:   25.0%
 ccsd(t): done       19 out of       72 progress:   26.4%
 ccsd(t): done       20 out of       72 progress:   27.8%
 ccsd(t): done       21 out of       72 progress:   29.2%
 ccsd(t): done       22 out of       72 progress:   30.6%
 ccsd(t): done       23 out of       72 progress:   31.9%
 ccsd(t): done       24 out of       72 progress:   33.3%
 ccsd(t): done       25 out of       72 progress:   34.7%
 ccsd(t): done       26 out of       72 progress:   36.1%
 ccsd(t): done       27 out of       72 progress:   37.5%
 ccsd(t): done       28 out of       72 progress:   38.9%
 ccsd(t): done       29 out of       72 progress:   40.3%
 ccsd(t): done       30 out of       72 progress:   41.7%
 ccsd(t): done       31 out of       72 progress:   43.1%
 ccsd(t): done       32 out of       72 progress:   44.4%
 ccsd(t): done       33 out of       72 progress:   45.8%
 ccsd(t): done       34 out of       72 progress:   47.2%
 ccsd(t): done       35 out of       72 progress:   48.6%
 ccsd(t): done       36 out of       72 progress:   50.0%
 ccsd(t): done       37 out of       72 progress:   51.4%
 ccsd(t): done       38 out of       72 progress:   52.8%
 ccsd(t): done       39 out of       72 progress:   54.2%
 ccsd(t): done       40 out of       72 progress:   55.6%
 ccsd(t): done       41 out of       72 progress:   56.9%
 ccsd(t): done       42 out of       72 progress:   58.3%
 ccsd(t): done       43 out of       72 progress:   59.7%
 ccsd(t): done       44 out of       72 progress:   61.1%
 ccsd(t): done       45 out of       72 progress:   62.5%
 ccsd(t): done       46 out of       72 progress:   63.9%
 ccsd(t): done       47 out of       72 progress:   65.3%
 ccsd(t): done       48 out of       72 progress:   66.7%
 ccsd(t): done       49 out of       72 progress:   68.1%
 ccsd(t): done       50 out of       72 progress:   69.4%
 ccsd(t): done       51 out of       72 progress:   70.8%
 ccsd(t): done       52 out of       72 progress:   72.2%
 ccsd(t): done       53 out of       72 progress:   73.6%
 ccsd(t): done       54 out of       72 progress:   75.0%
 ccsd(t): done       55 out of       72 progress:   76.4%
 ccsd(t): done       56 out of       72 progress:   77.8%
 ccsd(t): done       57 out of       72 progress:   79.2%
 ccsd(t): done       58 out of       72 progress:   80.6%
 ccsd(t): done       59 out of       72 progress:   81.9%
 ccsd(t): done       60 out of       72 progress:   83.3%
 ccsd(t): done       61 out of       72 progress:   84.7%
 ccsd(t): done       62 out of       72 progress:   86.1%
 ccsd(t): done       63 out of       72 progress:   87.5%
 ccsd(t): done       64 out of       72 progress:   88.9%
 ccsd(t): done       65 out of       72 progress:   90.3%
 ccsd(t): done       66 out of       72 progress:   91.7%
 ccsd(t): done       67 out of       72 progress:   93.1%
 ccsd(t): done       68 out of       72 progress:   94.4%
 ccsd(t): done       69 out of       72 progress:   95.8%
 ccsd(t): done       70 out of       72 progress:   97.2%
 ccsd(t): done       71 out of       72 progress:   98.6%
 ccsd(t): done       72 out of       72 progress:  100.0%
 Time for integral evaluation pass     1        2.32
 Time for triples evaluation pass      1        8.84

 pseudo-e(mp4)  -0.11879814586976E-01
 pseudo-e(mp5)   0.83557743942365E-03
        e(t)    -0.11044237147553E-01

 --------------
 CCSD(T) Energy
 --------------
 Reference energy:                    -152.081318906950969

 CCSD corr. energy:                     -0.462372159705343
 T(CCSD) corr. energy:                  -0.011879814586976
 Total CCSD+T(CCSD) energy:           -152.555570881243284

 CCSD corr. energy:                     -0.462372159705343
 (T) corr. energy:                      -0.011044237147553
 Total CCSD(T) energy:                -152.554735303803852

 routine      calls  cpu(0)   cpu-min  cpu-ave  cpu-max   i/o 
 aoccsd          1     0.01     0.01     0.01     0.01    0.00
 iterdrv         1     0.05     0.05     0.05     0.05    0.00
 pampt          14     0.07     0.07     0.07     0.07    0.00
 t2pm           14     0.13     0.13     0.13     0.13    0.00
 sxy            14     0.09     0.09     0.09     0.09    0.00
 ints       548157     1.70     1.70     1.70     1.70    0.00
 f_write      1482     0.36     0.36     0.36     0.36    0.00
 t2eri       10374     7.12     7.12     7.12     7.12    0.00
 idx2        10374     1.08     1.08     1.08     1.08    0.00
 idx34          14     0.15     0.15     0.15     0.15    0.00
 ht2pm          14     0.16     0.16     0.16     0.16    0.00
 itm            14     1.72     1.72     1.72     1.72    0.00
 pdiis          14     0.02     0.02     0.02     0.02    0.00
 r_read       9633     0.21     0.21     0.21     0.21    0.00
 triples         1     0.00     0.00     0.00     0.00    0.00
 rdtrpo          1     0.01     0.01     0.01     0.01    0.00
 trpmos          1     2.32     2.32     2.32     2.32    0.00
 trpdrv          1     0.62     0.62     0.62     0.62    0.00
 dovvv       79200     5.71     5.71     5.71     5.71    0.00
 doooo       79200     0.97     0.97     0.97     0.97    0.00
 tengy       72000     1.50     1.50     1.50     1.50    0.00
 Total                23.98    23.98    23.98    23.98    0.00

 Task  times  cpu:       26.0s     wall:       26.0s
 Summary of allocated global arrays
-----------------------------------
  No active global arrays


MA_summarize_allocated_blocks: starting scan ...
MA_summarize_allocated_blocks: scan completed: 0 heap blocks, 0 stack blocks
MA usage statistics:

	allocation statistics:
					      heap	     stack
					      ----	     -----
	current number of blocks	         0	         0
	maximum number of blocks	        17	        41
	current total bytes		         0	         0
	maximum total bytes		  96555632	 377953640
	maximum total K-bytes		     96556	    377954
	maximum total M-bytes		        97	       378


                                NWChem Input Module
                                -------------------




                                     CITATION
                                     --------
                Please cite the following reference when publishing
                           results obtained with NWChem:

          E. Apra, E. J. Bylaska, W. A. de Jong, N. Govind, K. Kowalski,
       T. P. Straatsma, M. Valiev, H. J. J. van Dam, Y. Alexeev, J. Anchell,
       V. Anisimov, F. W. Aquino, R. Atta-Fynn, J. Autschbach, N. P. Bauman,
     J. C. Becca, D. E. Bernholdt, K. Bhaskaran-Nair, S. Bogatko, P. Borowski,
         J. Boschen, J. Brabec, A. Bruner, E. Cauet, Y. Chen, G. N. Chuev,
      C. J. Cramer, J. Daily, M. J. O. Deegan, T. H. Dunning Jr., M. Dupuis,
   K. G. Dyall, G. I. Fann, S. A. Fischer, A. Fonari, H. Fruchtl, L. Gagliardi,
      J. Garza, N. Gawande, S. Ghosh, K. Glaesemann, A. W. Gotz, J. Hammond,
       V. Helms, E. D. Hermes, K. Hirao, S. Hirata, M. Jacquelin, L. Jensen,
   B. G. Johnson, H. Jonsson, R. A. Kendall, M. Klemm, R. Kobayashi, V. Konkov,
      S. Krishnamoorthy, M. Krishnan, Z. Lin, R. D. Lins, R. J. Littlefield,
      A. J. Logsdail, K. Lopata, W. Ma, A. V. Marenich, J. Martin del Campo,
   D. Mejia-Rodriguez, J. E. Moore, J. M. Mullin, T. Nakajima, D. R. Nascimento,
    J. A. Nichols, P. J. Nichols, J. Nieplocha, A. Otero-de-la-Roza, B. Palmer,
    A. Panyala, T. Pirojsirikul, B. Peng, R. Peverati, J. Pittner, L. Pollack,
   R. M. Richard, P. Sadayappan, G. C. Schatz, W. A. Shelton, D. W. Silverstein,
   D. M. A. Smith, T. A. Soares, D. Song, M. Swart, H. L. Taylor, G. S. Thomas,
            V. Tipparaju, D. G. Truhlar, K. Tsemekhman, T. Van Voorhis,
      A. Vazquez-Mayagoitia, P. Verma, O. Villa, A. Vishnu, K. D. Vogiatzis,
        D. Wang, J. H. Weare, M. J. Williamson, T. L. Windus, K. Wolinski,
        A. T. Wong, Q. Wu, C. Yang, Q. Yu, M. Zacharias, Z. Zhang, Y. Zhao,
                                and R. J. Harrison
                        "NWChem: Past, present, and future
                         J. Chem. Phys. 152, 184102 (2020)
                               doi:10.1063/5.0004997

                                      AUTHORS
                                      -------
  E. Apra, E. J. Bylaska, N. Govind, K. Kowalski, M. Valiev, D. Mejia-Rodriguez,
       A. Kunitsa, N. P. Bauman, A. Panyala, W. A. de Jong, T. P. Straatsma,
   H. J. J. van Dam, D. Wang, T. L. Windus, J. Hammond, J. Autschbach, A. Woods,
    K. Bhaskaran-Nair, J. Brabec, K. Lopata, S. A. Fischer, S. Krishnamoorthy,
     M. Jacquelin, W. Ma, M. Klemm, O. Villa, Y. Chen, V. Anisimov, F. Aquino,
     S. Hirata, M. T. Hackler, E. Hermes, L. Jensen, J. E. Moore, J. C. Becca,
      V. Konjkov, T. Risthaus, M. Malagoli, A. Marenich, A. Otero-de-la-Roza,
        J. Mullin, P. Nichols, R. Peverati, J. Pittner, Y. Zhao, P.-D. Fan,
        A. Fonari, M. J. Williamson, R. J. Harrison, J. R. Rehr, M. Dupuis,
     D. Silverstein, D. M. A. Smith, J. Nieplocha, V. Tipparaju, M. Krishnan,
     B. E. Van Kuiken, A. Vazquez-Mayagoitia, M. Swart, Q. Wu, T. Van Voorhis,
     A. A. Auer, M. Nooijen, L. D. Crosby, E. Brown, G. Cisneros, G. I. Fann,
   H. Fruchtl, J. Garza, K. Hirao, R. A. Kendall, J. A. Nichols, K. Tsemekhman,
    K. Wolinski, J. Anchell, D. E. Bernholdt, P. Borowski, T. Clark, D. Clerc,
   H. Dachsel, M. J. O. Deegan, K. Dyall, D. Elwood, E. Glendening, M. Gutowski,
   A. C. Hess, J. Jaffe, B. G. Johnson, J. Ju, R. Kobayashi, R. Kutteh, Z. Lin,
   R. Littlefield, X. Long, B. Meng, T. Nakajima, S. Niu, L. Pollack, M. Rosing,
   K. Glaesemann, G. Sandrone, M. Stave, H. Taylor, G. Thomas, J. H. van Lenthe,
                               A. T. Wong, Z. Zhang.

 Total times  cpu:       26.1s     wall:       26.1s
