 argument  1 = /var/folders/v1/k9l8hql13n1gcrjl_yh_gs5m0000gn/T/tmps_0reyqw/input_B_AB.txt
                                         
                                         


             Northwest Computational Chemistry Package (NWChem) 7.2.3
             --------------------------------------------------------


                    Environmental Molecular Sciences Laboratory
                       Pacific Northwest National Laboratory
                                Richland, WA 99352

                              Copyright (c) 1994-2022
                       Pacific Northwest National Laboratory
                            Battelle Memorial Institute

             NWChem is an open-source computational chemistry package
                        distributed under the terms of the
                      Educational Community License (ECL) 2.0
             A copy of the license is included with this distribution
                              in the LICENSE.TXT file

                                  ACKNOWLEDGMENT
                                  --------------

            This software and its documentation were developed at the
            EMSL at Pacific Northwest National Laboratory, a multiprogram
            national laboratory, operated for the U.S. Department of Energy
            by Battelle under Contract Number DE-AC05-76RL01830. Support
            for this work was provided by the Department of Energy Office
            of Biological and Environmental Research, Office of Basic
            Energy Sciences, and the Office of Advanced Scientific Computing.


           Job information
           ---------------

    hostname        = visitor-wireless1-147-155-221-109.ameslab.gov
    program         = nwchem
    date            = Wed Jul  2 15:39:04 2025

    compiled        = Thu_Dec_26_16:03:44_2024
    source          = /private/tmp/nwchem-20241226-24280-orrtsi/nwchem-7.2.3
    nwchem branch   = 7.2.3
    nwchem revision = d690e065
    ga revision     = 5.8.0
    use scalapack   = T
    input           = /var/folders/v1/k9l8hql13n1gcrjl_yh_gs5m0000gn/T/tmps_0reyqw/input_B_AB.txt
    prefix          = input_B_AB.
    data base       = ./input_B_AB.db
    status          = restart
    nproc           =        8
    time left       =     -1s



           Memory information
           ------------------

    heap     =  536870908 doubles =   4096.0 Mbytes
    stack    =  536870913 doubles =   4096.0 Mbytes
    global   = 1073741824 doubles =   8192.0 Mbytes (distinct from heap & stack)
    total    = 2147483645 doubles =  16384.0 Mbytes
    verify   = yes
    hardfail = no 


           Directory information
           ---------------------

  0 permanent = .
  0 scratch   = .


           Previous task information
           -------------------------

    Theory    = ccsd(t)                         
    Operation = energy                        
    Status    = ok                            
    Qmmm      = F
    Ignore    = F


           Geometries in the database
           --------------------------

       Name                              Natoms  Last Modified
       --------------------------------  ------  ------------------------
    1  geometry                               6  Wed Jul  2 15:37:56 2025  

  The geometry named "geometry" is the default for restart



           Basis sets in the database
           --------------------------

       Name                              Natoms  Last Modified
        --------------------------------  ------  ------------------------
    1  ao basis                               4  Wed Jul  2 15:37:56 2025  

  The basis set named "ao basis" is the default AO basis for restart




                                NWChem Input Module
                                -------------------



 Scaling coordinates for geometry "geometry" by  1.889725989
 (inverse scale =  0.529177249)

 CS  symmetry detected


                             Geometry "geometry" -> ""
                             -------------------------

 Output coordinates in angstroms (scale by  1.889725989 to convert to a.u.)

  No.       Tag          Charge          X              Y              Z
 ---- ---------------- ---------- -------------- -------------- --------------
    1 bqO                  0.0000    -0.49505266    -1.65070997     0.00000000
    2 bqH                  0.0000     0.08745982    -1.77127640    -0.76108286
    3 bqH                  0.0000     0.08745982    -1.77127640     0.76108286
    4 O                    8.0000    -0.02335897    -0.11666048     0.00000000
    5 H                    1.0000    -0.65277395     0.61607428     0.00000000
    6 H                    1.0000     0.83964573     0.31720955     0.00000000

      Atomic Mass 
      ----------- 

      O                 15.994910
      H                  1.007825


 Effective nuclear repulsion energy (a.u.)       9.1130505810

            Nuclear Dipole moment (a.u.) 
            ----------------------------
        X                 Y               Z
 ---------------- ---------------- ----------------
     0.0000000000    -0.0000000000     0.0000000000

      Symmetry information
      --------------------

 Group name             Cs        
 Group number              2
 Group order               2
 No. of unique centers     5

      Symmetry unique atoms

     1    2    4    5    6


            XYZ format geometry
            -------------------
     6
 geometry
 bqO                  -0.49505266    -1.65070997     0.00000000
 bqH                   0.08745982    -1.77127640    -0.76108286
 bqH                   0.08745982    -1.77127640     0.76108286
 O                    -0.02335897    -0.11666048     0.00000000
 H                    -0.65277395     0.61607428     0.00000000
 H                     0.83964573     0.31720955     0.00000000

 ==============================================================================
                                internuclear distances
 ------------------------------------------------------------------------------
       center one      |      center two      | atomic units |  angstroms
 ------------------------------------------------------------------------------
    2 bqH              |   1 bqO              |     1.82542  |     0.96597
    3 bqH              |   1 bqO              |     1.82542  |     0.96597
    3 bqH              |   2 bqH              |     2.87648  |     1.52217
    4 O                |   1 bqO              |     3.03288  |     1.60493
    4 O                |   2 bqH              |     3.44805  |     1.82463
    4 O                |   3 bqH              |     3.44805  |     1.82463
    5 H                |   1 bqO              |     4.29396  |     2.27226
    5 H                |   4 O                |     1.82538  |     0.96595
    6 H                |   1 bqO              |     4.49347  |     2.37784
    6 H                |   2 bqH              |     4.43454  |     2.34666
    6 H                |   3 bqH              |     4.43454  |     2.34666
    6 H                |   4 O                |     1.82534  |     0.96593
 ------------------------------------------------------------------------------
                         number of included internuclear distances:         12
 ==============================================================================



 ==============================================================================
                                 internuclear angles
 ------------------------------------------------------------------------------
        center 1       |       center 2       |       center 3       |  degrees
 ------------------------------------------------------------------------------
    2 bqH              |   1 bqO              |   3 bqH              |   103.98
    2 bqH              |   1 bqO              |   4 O                |    86.68
    2 bqH              |   1 bqO              |   5 H                |    99.58
    1 bqO              |   2 bqH              |   6 H                |    80.02
    3 bqH              |   1 bqO              |   4 O                |    86.68
    3 bqH              |   1 bqO              |   5 H                |    99.58
    1 bqO              |   3 bqH              |   6 H                |    80.02
    1 bqO              |   4 O                |   5 H                |   122.25
    1 bqO              |   4 O                |   6 H                |   133.78
    5 H                |   1 bqO              |   6 H                |    38.13
    2 bqH              |   1 bqO              |   3 bqH              |   103.98
    2 bqH              |   1 bqO              |   4 O                |    86.68
    1 bqO              |   2 bqH              |   6 H                |    80.02
    2 bqH              |   4 O                |   3 bqH              |    49.31
    2 bqH              |   6 H                |   3 bqH              |    37.85
    2 bqH              |   4 O                |   6 H                |   110.67
    3 bqH              |   1 bqO              |   2 bqH              |   103.98
    3 bqH              |   1 bqO              |   4 O                |    86.68
    1 bqO              |   3 bqH              |   6 H                |    80.02
    3 bqH              |   4 O                |   2 bqH              |    49.31
    3 bqH              |   6 H                |   2 bqH              |    37.85
    3 bqH              |   4 O                |   6 H                |   110.67
    4 O                |   1 bqO              |   2 bqH              |    86.68
    4 O                |   1 bqO              |   3 bqH              |    86.68
    1 bqO              |   4 O                |   5 H                |   122.25
    1 bqO              |   4 O                |   6 H                |   133.78
    2 bqH              |   4 O                |   3 bqH              |    49.31
    2 bqH              |   4 O                |   5 H                |   136.67
    2 bqH              |   4 O                |   6 H                |   110.67
    3 bqH              |   4 O                |   5 H                |   136.67
    3 bqH              |   4 O                |   6 H                |   110.67
    5 H                |   4 O                |   6 H                |   103.97
    5 H                |   4 O                |   1 bqO              |   122.25
    6 H                |   2 bqH              |   1 bqO              |    80.02
    6 H                |   3 bqH              |   1 bqO              |    80.02
    6 H                |   4 O                |   1 bqO              |   133.78
    2 bqH              |   6 H                |   3 bqH              |    37.85
    6 H                |   4 O                |   2 bqH              |   110.67
    6 H                |   4 O                |   3 bqH              |   110.67
 ------------------------------------------------------------------------------
                            number of included internuclear angles:         39
 ==============================================================================



  library name resolved from: environment
  library file name is: </opt/homebrew/Caskroom/mambaforge/base/envs/ames/share/nwchem/libraries/>
  
                      Basis "ao basis" -> "" (spherical)
                      -----
  bqO
  ---
            Exponent  Coefficients 
       -------------- ---------------------------------------------------------
  1 S  1.17200000E+04  0.000710
  1 S  1.75900000E+03  0.005470
  1 S  4.00800000E+02  0.027837
  1 S  1.13700000E+02  0.104800
  1 S  3.70300000E+01  0.283062
  1 S  1.32700000E+01  0.448719
  1 S  5.02500000E+00  0.270952
  1 S  1.01300000E+00  0.015458

  2 S  1.17200000E+04 -0.000160
  2 S  1.75900000E+03 -0.001263
  2 S  4.00800000E+02 -0.006267
  2 S  1.13700000E+02 -0.025716
  2 S  3.70300000E+01 -0.070924
  2 S  1.32700000E+01 -0.165411
  2 S  5.02500000E+00 -0.116955
  2 S  1.01300000E+00  0.557368

  3 S  3.02300000E-01  1.000000

  4 S  7.89600000E-02  1.000000

  5 P  1.77000000E+01  0.043018
  5 P  3.85400000E+00  0.228913
  5 P  1.04600000E+00  0.508728

  6 P  2.75300000E-01  1.000000

  7 P  6.85600000E-02  1.000000

  8 D  1.18500000E+00  1.000000

  9 D  3.32000000E-01  1.000000

  bqH
  ---
            Exponent  Coefficients 
       -------------- ---------------------------------------------------------
  1 S  1.30100000E+01  0.019685
  1 S  1.96200000E+00  0.137977
  1 S  4.44600000E-01  0.478148

  2 S  1.22000000E-01  1.000000

  3 S  2.97400000E-02  1.000000

  4 P  7.27000000E-01  1.000000

  5 P  1.41000000E-01  1.000000

  O (Oxygen)
  ----------
            Exponent  Coefficients 
       -------------- ---------------------------------------------------------
  1 S  1.17200000E+04  0.000710
  1 S  1.75900000E+03  0.005470
  1 S  4.00800000E+02  0.027837
  1 S  1.13700000E+02  0.104800
  1 S  3.70300000E+01  0.283062
  1 S  1.32700000E+01  0.448719
  1 S  5.02500000E+00  0.270952
  1 S  1.01300000E+00  0.015458

  2 S  1.17200000E+04 -0.000160
  2 S  1.75900000E+03 -0.001263
  2 S  4.00800000E+02 -0.006267
  2 S  1.13700000E+02 -0.025716
  2 S  3.70300000E+01 -0.070924
  2 S  1.32700000E+01 -0.165411
  2 S  5.02500000E+00 -0.116955
  2 S  1.01300000E+00  0.557368

  3 S  3.02300000E-01  1.000000

  4 S  7.89600000E-02  1.000000

  5 P  1.77000000E+01  0.043018
  5 P  3.85400000E+00  0.228913
  5 P  1.04600000E+00  0.508728

  6 P  2.75300000E-01  1.000000

  7 P  6.85600000E-02  1.000000

  8 D  1.18500000E+00  1.000000

  9 D  3.32000000E-01  1.000000

  H (Hydrogen)
  ------------
            Exponent  Coefficients 
       -------------- ---------------------------------------------------------
  1 S  1.30100000E+01  0.019685
  1 S  1.96200000E+00  0.137977
  1 S  4.44600000E-01  0.478148

  2 S  1.22000000E-01  1.000000

  3 S  2.97400000E-02  1.000000

  4 P  7.27000000E-01  1.000000

  5 P  1.41000000E-01  1.000000



 Summary of "ao basis" -> "" (spherical)
 ------------------------------------------------------------------------------
       Tag                 Description            Shells   Functions and Types
 ---------------- ------------------------------  ------  ---------------------
 bqO                      aug-cc-pvdz                9       23   4s3p2d
 bqH                      aug-cc-pvdz                5        9   3s2p
 O                        aug-cc-pvdz                9       23   4s3p2d
 H                        aug-cc-pvdz                5        9   3s2p


                                 NWChem SCF Module
                                 -----------------



  ao basis        = "ao basis"
  functions       =    82
  atoms           =     6
  closed shells   =     5
  open shells     =     0
  charge          =   0.00
  wavefunction    = RHF 
  input vectors   = ./input_B_AB.movecs
  output vectors  = ./input_B_AB.movecs
  use symmetry    = T
  symmetry adapt  = T


 Summary of "ao basis" -> "ao basis" (spherical)
 ------------------------------------------------------------------------------
       Tag                 Description            Shells   Functions and Types
 ---------------- ------------------------------  ------  ---------------------
 bqO                      aug-cc-pvdz                9       23   4s3p2d
 bqH                      aug-cc-pvdz                5        9   3s2p
 O                        aug-cc-pvdz                9       23   4s3p2d
 H                        aug-cc-pvdz                5        9   3s2p


      Symmetry analysis of basis
      --------------------------

        a'         55
        a"         27


 Forming initial guess at       0.1s


 Loading old vectors from job with title :




      Symmetry analysis of molecular orbitals - initial
      -------------------------------------------------

  Numbering of irreducible representations: 

     1 a'          2 a"      

  Orbital symmetries:

     1 a'          2 a'          3 a'          4 a'          5 a"      
     6 a'          7 a'          8 a"          9 a'         10 a'      
    11 a'         12 a'         13 a"         14 a'         15 a"      


 Starting SCF solution at       0.1s



 ----------------------------------------------
         Quadratically convergent ROHF

 Convergence threshold     :          1.000E-06
 Maximum no. of iterations :           30
 Final Fock-matrix accuracy:          1.000E-08
 ----------------------------------------------


 Integral file          = ./input_B_AB.aoints.0
 Record size in doubles =  65536        No. of integs per rec  =  43688
 Max. records in memory =     17        Max. records in file   =   3922
 No. of bits per label  =      8        No. of bits per value  =     64


 #quartets = 1.868D+05 #integrals = 3.166D+06 #direct =  0.0% #cached =100.0%


File balance: exchanges=     7  moved=    14  time=   0.0


              iter       energy          gnorm     gmax       time
             ----- ------------------- --------- --------- --------
                 1      -74.9459740751  3.22D+00  8.63D-01      0.5
                 2      -75.8524335270  1.59D+00  3.59D-01      0.6
                 3      -76.0083232982  7.92D-01  2.45D-01      0.6
                 4      -76.0401898726  1.53D-01  4.55D-02      0.7
                 5      -76.0416590679  8.26D-03  2.57D-03      0.9
                 6      -76.0416676728  3.76D-05  9.90D-06      1.1
                 7      -76.0416676730  2.74D-08  6.30D-09      1.6


       Final RHF  results 
       ------------------ 

         Total SCF energy =    -76.041667672979
      One-electron energy =   -122.833487536930
      Two-electron energy =     37.678769282948
 Nuclear repulsion energy =      9.113050581003

        Time for solution =      1.5s



       Symmetry analysis of molecular orbitals - final
       -----------------------------------------------

  Numbering of irreducible representations: 

     1 a'          2 a"      

  Orbital symmetries:

     1 a'          2 a'          3 a'          4 a'          5 a"      
     6 a'          7 a'          8 a'          9 a"         10 a'      
    11 a'         12 a'         13 a"         14 a'         15 a"      

             Final eigenvalues
             -----------------

              1      
    1  -20.5788
    2   -1.3525
    3   -0.7134
    4   -0.5847
    5   -0.5086
    6    0.0333
    7    0.0564
    8    0.0607
    9    0.0710
   10    0.1613
   11    0.1808
   12    0.2038
   13    0.2083
   14    0.2131
   15    0.2296

                       ROHF Final Molecular Orbital Analysis
                       -------------------------------------

 Vector    2  Occ=2.000000D+00  E=-1.352501D+00  Symmetry=a'
              MO Center=  9.6D-03,  4.8D-02,  1.1D-16, r^2= 5.0D-01
   Bfn.  Coefficient  Atom+Function         Bfn.  Coefficient  Atom+Function  
  ----- ------------  ---------------      ----- ------------  ---------------
    43      0.445497  4 O  s                 44      0.387943  4 O  s          
    65      0.207208  5 H  s                 74      0.207387  6 H  s          

 Vector    3  Occ=2.000000D+00  E=-7.133695D-01  Symmetry=a'
              MO Center=  1.9D-02,  9.3D-02,  6.3D-18, r^2= 7.7D-01
   Bfn.  Coefficient  Atom+Function         Bfn.  Coefficient  Atom+Function  
  ----- ------------  ---------------      ----- ------------  ---------------
    46      0.488910  4 O  px                65     -0.352139  5 H  s          
    74      0.352544  6 H  s                 49      0.196439  4 O  px         

 Vector    4  Occ=2.000000D+00  E=-5.847487D-01  Symmetry=a'
              MO Center= -3.0D-02, -1.5D-01, -2.2D-16, r^2= 7.3D-01
   Bfn.  Coefficient  Atom+Function         Bfn.  Coefficient  Atom+Function  
  ----- ------------  ---------------      ----- ------------  ---------------
    47      0.537249  4 O  py                44     -0.309397  4 O  s          
    50      0.309432  4 O  py                65      0.212918  5 H  s          
    74      0.213580  6 H  s                 43     -0.153783  4 O  s          

 Vector    5  Occ=2.000000D+00  E=-5.086043D-01  Symmetry=a"
              MO Center= -1.6D-02, -7.8D-02, -1.2D-16, r^2= 6.8D-01
   Bfn.  Coefficient  Atom+Function         Bfn.  Coefficient  Atom+Function  
  ----- ------------  ---------------      ----- ------------  ---------------
    48      0.628290  4 O  pz                51      0.454131  4 O  pz         

 Vector    6  Occ=0.000000D+00  E= 3.326640D-02  Symmetry=a'
              MO Center=  2.7D-01,  9.5D-01,  5.0D-17, r^2= 1.1D+01
   Bfn.  Coefficient  Atom+Function         Bfn.  Coefficient  Atom+Function  
  ----- ------------  ---------------      ----- ------------  ---------------
    45      1.396603  4 O  s                 76     -1.067471  6 H  s          
     4      0.897245  1 bq s                 67     -0.816062  5 H  s          
    66     -0.563020  5 H  s                 75     -0.553447  6 H  s          
    53      0.464272  4 O  py                25     -0.273038  2 bq s          
    34     -0.273038  3 bq s                 12      0.229781  1 bq py         

 Vector    7  Occ=0.000000D+00  E= 5.639156D-02  Symmetry=a'
              MO Center=  7.2D-02,  6.9D-01, -7.3D-18, r^2= 1.6D+01
   Bfn.  Coefficient  Atom+Function         Bfn.  Coefficient  Atom+Function  
  ----- ------------  ---------------      ----- ------------  ---------------
    67      3.156130  5 H  s                 76     -2.806306  6 H  s          
    52      1.060257  4 O  px                66      0.645171  5 H  s          
    75     -0.621263  6 H  s                  4      0.555259  1 bq s          
    53     -0.362336  4 O  py                25     -0.276277  2 bq s          
    34     -0.276277  3 bq s                 26     -0.241741  2 bq s          

 Vector    8  Occ=0.000000D+00  E= 6.072384D-02  Symmetry=a'
              MO Center=  1.6D-01, -2.0D+00,  7.7D-17, r^2= 1.6D+01
   Bfn.  Coefficient  Atom+Function         Bfn.  Coefficient  Atom+Function  
  ----- ------------  ---------------      ----- ------------  ---------------
    76      2.012281  6 H  s                 26     -1.355065  2 bq s          
    35     -1.355065  3 bq s                 53     -0.760518  4 O  py         
     4      0.718685  1 bq s                 52     -0.556309  4 O  px         
    25     -0.486128  2 bq s                 34     -0.486128  3 bq s          
    12     -0.464308  1 bq py                75      0.327531  6 H  s          

 Vector    9  Occ=0.000000D+00  E= 7.102497D-02  Symmetry=a"
              MO Center=  4.0D-01, -2.0D+00, -4.5D-15, r^2= 1.6D+01
   Bfn.  Coefficient  Atom+Function         Bfn.  Coefficient  Atom+Function  
  ----- ------------  ---------------      ----- ------------  ---------------
    26      3.097137  2 bq s                 35     -3.097137  3 bq s          
    13      0.786293  1 bq pz                25      0.694796  2 bq s          
    34     -0.694796  3 bq s                 32      0.206805  2 bq pz         
    41      0.206805  3 bq pz                54      0.169324  4 O  pz         
    30     -0.164620  2 bq px                39      0.164620  3 bq px         

 Vector   10  Occ=0.000000D+00  E= 1.612930D-01  Symmetry=a'
              MO Center= -5.2D-01, -1.4D+00,  2.1D-15, r^2= 1.1D+01
   Bfn.  Coefficient  Atom+Function         Bfn.  Coefficient  Atom+Function  
  ----- ------------  ---------------      ----- ------------  ---------------
     4      7.992709  1 bq s                 45     -5.171187  4 O  s          
    53      3.179035  4 O  py                11      2.848630  1 bq px         
    12      2.067083  1 bq py                76     -1.817486  6 H  s          
    25     -1.748515  2 bq s                 34     -1.748515  3 bq s          
    52      0.674110  4 O  px                26      0.532949  2 bq s          

 Vector   11  Occ=0.000000D+00  E= 1.808302D-01  Symmetry=a'
              MO Center= -1.8D-01, -2.9D-02,  1.1D-15, r^2= 1.1D+01
   Bfn.  Coefficient  Atom+Function         Bfn.  Coefficient  Atom+Function  
  ----- ------------  ---------------      ----- ------------  ---------------
     4      2.984451  1 bq s                 45      2.905702  4 O  s          
    53      2.386199  4 O  py                66     -1.483003  5 H  s          
    67     -1.248636  5 H  s                 75     -1.191262  6 H  s          
    76     -0.541185  6 H  s                 80      0.379720  6 H  px         
    25     -0.351199  2 bq s                 34     -0.351199  3 bq s          

 Vector   12  Occ=0.000000D+00  E= 2.038132D-01  Symmetry=a'
              MO Center= -1.8D-02, -1.5D+00, -3.5D-16, r^2= 1.1D+01
   Bfn.  Coefficient  Atom+Function         Bfn.  Coefficient  Atom+Function  
  ----- ------------  ---------------      ----- ------------  ---------------
    12      2.257620  1 bq py                52      1.711152  4 O  px         
    76     -1.675057  6 H  s                 75     -1.141843  6 H  s          
    11     -1.068224  1 bq px                 4     -1.025877  1 bq s          
    26      1.007286  2 bq s                 35      1.007286  3 bq s          
    53      0.778851  4 O  py                25      0.749387  2 bq s          

 Vector   13  Occ=0.000000D+00  E= 2.082914D-01  Symmetry=a"
              MO Center= -2.4D-01, -4.1D-01,  8.6D-16, r^2= 9.2D+00
   Bfn.  Coefficient  Atom+Function         Bfn.  Coefficient  Atom+Function  
  ----- ------------  ---------------      ----- ------------  ---------------
    54      2.345993  4 O  pz                13     -2.025619  1 bq pz         
    25     -0.484225  2 bq s                 34      0.484225  3 bq s          
    73     -0.356285  5 H  pz                82     -0.311534  6 H  pz         
    31      0.288683  2 bq py                40     -0.288683  3 bq py         
    30      0.197934  2 bq px                39     -0.197934  3 bq px         

 Vector   14  Occ=0.000000D+00  E= 2.131122D-01  Symmetry=a'
              MO Center=  6.4D-01, -8.9D-01,  2.4D-15, r^2= 1.0D+01
   Bfn.  Coefficient  Atom+Function         Bfn.  Coefficient  Atom+Function  
  ----- ------------  ---------------      ----- ------------  ---------------
    53      3.433995  4 O  py                45     -2.786941  4 O  s          
    67     -1.890545  5 H  s                 25      1.697208  2 bq s          
    34      1.697208  3 bq s                 52     -1.456834  4 O  px         
    75      1.263886  6 H  s                 66     -0.980599  5 H  s          
    26      0.889827  2 bq s                 35      0.889827  3 bq s          

 Vector   15  Occ=0.000000D+00  E= 2.295991D-01  Symmetry=a"
              MO Center= -5.9D-01, -1.4D+00, -2.2D-15, r^2= 1.0D+01
   Bfn.  Coefficient  Atom+Function         Bfn.  Coefficient  Atom+Function  
  ----- ------------  ---------------      ----- ------------  ---------------
    26      2.686246  2 bq s                 35     -2.686246  3 bq s          
    13      2.528621  1 bq pz                25      2.458722  2 bq s          
    34     -2.458722  3 bq s                 54      0.901157  4 O  pz         
    32      0.448477  2 bq pz                41      0.448477  3 bq pz         
    30     -0.416687  2 bq px                39      0.416687  3 bq px         

 Vector   16  Occ=0.000000D+00  E= 2.324579D-01  Symmetry=a'
              MO Center= -6.5D-01,  2.5D-01,  1.3D-15, r^2= 9.4D+00
   Bfn.  Coefficient  Atom+Function         Bfn.  Coefficient  Atom+Function  
  ----- ------------  ---------------      ----- ------------  ---------------
    52      3.308551  4 O  px                76     -2.595903  6 H  s          
    75     -2.338211  6 H  s                 66      2.288778  5 H  s          
    67      2.207041  5 H  s                 45     -1.392552  4 O  s          
    53      1.062284  4 O  py                72     -1.024168  5 H  py         
    11     -0.621295  1 bq px                25      0.542359  2 bq s          

 Vector   17  Occ=0.000000D+00  E= 3.124281D-01  Symmetry=a'
              MO Center= -3.6D-01, -4.7D-01, -7.2D-16, r^2= 6.9D+00
   Bfn.  Coefficient  Atom+Function         Bfn.  Coefficient  Atom+Function  
  ----- ------------  ---------------      ----- ------------  ---------------
     4      6.675425  1 bq s                 45     -4.100650  4 O  s          
    53      2.908728  4 O  py                12      2.605724  1 bq py         
    66     -1.439182  5 H  s                 11      0.989917  1 bq px         
    25     -0.796125  2 bq s                 34     -0.796125  3 bq s          
    80     -0.671044  6 H  px                52      0.420404  4 O  px         

 Vector   18  Occ=0.000000D+00  E= 3.353306D-01  Symmetry=a'
              MO Center=  1.0D-01, -4.4D-01, -3.9D-15, r^2= 6.6D+00
   Bfn.  Coefficient  Atom+Function         Bfn.  Coefficient  Atom+Function  
  ----- ------------  ---------------      ----- ------------  ---------------
    45     14.659180  4 O  s                  4    -10.185689  1 bq s          
    75     -4.430011  6 H  s                 12     -2.929161  1 bq py         
    53     -2.810947  4 O  py                66     -2.706109  5 H  s          
    11     -1.976478  1 bq px                25      1.176196  2 bq s          
    34      1.176196  3 bq s                 72      0.845777  5 H  py         

 Vector   19  Occ=0.000000D+00  E= 3.533349D-01  Symmetry=a"
              MO Center=  1.4D-01, -7.7D-01,  4.8D-16, r^2= 5.8D+00
   Bfn.  Coefficient  Atom+Function         Bfn.  Coefficient  Atom+Function  
  ----- ------------  ---------------      ----- ------------  ---------------
    73      0.721580  5 H  pz                82     -0.667476  6 H  pz         
    26     -0.569801  2 bq s                 35      0.569801  3 bq s          
    32     -0.562352  2 bq pz                41     -0.562352  3 bq pz         
    13      0.442237  1 bq pz                30      0.321631  2 bq px         
    39     -0.321631  3 bq px                25      0.272547  2 bq s          

 Vector   20  Occ=0.000000D+00  E= 3.546695D-01  Symmetry=a'
              MO Center= -3.5D-01, -4.4D-01,  4.3D-15, r^2= 6.9D+00
   Bfn.  Coefficient  Atom+Function         Bfn.  Coefficient  Atom+Function  
  ----- ------------  ---------------      ----- ------------  ---------------
    45      8.573831  4 O  s                  4     -5.531792  1 bq s          
    66     -3.644236  5 H  s                 52     -3.186402  4 O  px         
    12     -2.543735  1 bq py                53     -1.844738  4 O  py         
    76      0.789412  6 H  s                 11      0.761552  1 bq px         
    81      0.620174  6 H  py                80      0.559083  6 H  px         

 Vector   21  Occ=0.000000D+00  E= 4.448508D-01  Symmetry=a"
              MO Center=  1.5D-01, -7.0D-01, -3.1D-15, r^2= 6.4D+00
   Bfn.  Coefficient  Atom+Function         Bfn.  Coefficient  Atom+Function  
  ----- ------------  ---------------      ----- ------------  ---------------
    13      1.740795  1 bq pz                25      1.297115  2 bq s          
    34     -1.297115  3 bq s                 82      1.097783  6 H  pz         
    73     -0.778178  5 H  pz                32     -0.469284  2 bq pz         
    41     -0.469284  3 bq pz                54     -0.410012  4 O  pz         
    26      0.369943  2 bq s                 35     -0.369943  3 bq s          

 Vector   22  Occ=0.000000D+00  E= 4.552217D-01  Symmetry=a'
              MO Center= -6.4D-02, -1.1D+00,  7.9D-15, r^2= 6.4D+00
   Bfn.  Coefficient  Atom+Function         Bfn.  Coefficient  Atom+Function  
  ----- ------------  ---------------      ----- ------------  ---------------
     4      9.008823  1 bq s                 25     -3.481088  2 bq s          
    34     -3.481088  3 bq s                 53      2.782421  4 O  py         
    75     -1.909625  6 H  s                 66     -1.703644  5 H  s          
    11      1.287122  1 bq px                12      1.168592  1 bq py         
    52      0.814413  4 O  px                30      0.761755  2 bq px         

 Vector   23  Occ=0.000000D+00  E= 4.790644D-01  Symmetry=a"
              MO Center=  5.6D-02, -2.8D-01, -1.1D-16, r^2= 5.9D+00
   Bfn.  Coefficient  Atom+Function         Bfn.  Coefficient  Atom+Function  
  ----- ------------  ---------------      ----- ------------  ---------------
    54      1.500454  4 O  pz                73     -1.186704  5 H  pz         
    82     -1.151223  6 H  pz                31     -0.606560  2 bq py         
    40      0.606560  3 bq py                13     -0.447054  1 bq pz         
    51      0.429105  4 O  pz                25      0.264575  2 bq s          
    34     -0.264575  3 bq s                 32      0.170694  2 bq pz         

 Vector   24  Occ=0.000000D+00  E= 4.876310D-01  Symmetry=a'
              MO Center= -3.9D-02, -1.4D+00,  2.7D-15, r^2= 6.2D+00
   Bfn.  Coefficient  Atom+Function         Bfn.  Coefficient  Atom+Function  
  ----- ------------  ---------------      ----- ------------  ---------------
     4      9.138529  1 bq s                 45     -4.658113  4 O  s          
    25     -3.139596  2 bq s                 34     -3.139596  3 bq s          
    11      2.587585  1 bq px                66      1.858773  5 H  s          
    52      1.688571  4 O  px                12      1.368540  1 bq py         
    75     -1.328876  6 H  s                 53      1.188293  4 O  py         

 Vector   25  Occ=0.000000D+00  E= 5.270941D-01  Symmetry=a'
              MO Center=  1.1D-02,  3.9D-01,  1.4D-15, r^2= 6.5D+00
   Bfn.  Coefficient  Atom+Function         Bfn.  Coefficient  Atom+Function  
  ----- ------------  ---------------      ----- ------------  ---------------
    53     -5.817320  4 O  py                45      5.353284  4 O  s          
     4     -4.550795  1 bq s                 52     -1.702067  4 O  px         
    12     -1.610868  1 bq py                71      1.520288  5 H  px         
    25     -1.402006  2 bq s                 34     -1.402006  3 bq s          
    72      1.322997  5 H  py                81      1.275923  6 H  py         


 center of mass
 --------------
 x =  -0.01944129 y =  -0.09709459 z =   0.00000000

 moments of inertia (a.u.)
 ------------------
           2.335710050176           0.367138912374           0.000000000000
           0.367138912374           4.095264477035           0.000000000000
           0.000000000000           0.000000000000           6.430974527210

  Mulliken analysis of the total density
  --------------------------------------

    Atom       Charge   Shell Charges
 -----------   ------   -------------------------------------------------------
    1 X    0    -0.03  -0.00 -0.00  0.00 -0.02 -0.00 -0.01 -0.00  0.00 -0.01
    2 X    0    -0.02  -0.00 -0.01 -0.00 -0.00 -0.00
    3 X    0    -0.02  -0.00 -0.01 -0.00 -0.00 -0.00
    4 O    8     8.38   2.00  0.84  0.83  0.11  2.82  1.62  0.18  0.01 -0.02
    5 H    1     0.84   0.73  0.03 -0.00  0.08  0.00
    6 H    1     0.85   0.73  0.03 -0.01  0.08  0.01

       Multipole analysis of the density wrt the origin
       ------------------------------------------------

     L   x y z        total         open         nuclear
     -   - - -        -----         ----         -------
     0   0 0 0     -0.000000      0.000000     10.000000

     1   1 0 0      0.154800      0.000000      0.000000
     1   0 1 0      0.772969      0.000000     -0.000000
     1   0 0 1      0.000000      0.000000      0.000000

     2   2 0 0     -3.234934      0.000000      4.054886
     2   1 1 0     -0.279436      0.000000     -0.407148
     2   1 0 1      0.000000      0.000000      0.000000
     2   0 2 0     -4.581521      0.000000      2.103524
     2   0 1 1      0.000000      0.000000      0.000000
     2   0 0 2     -5.668913      0.000000      0.000000


------------------------------------------------------------
EAF file 0: "./input_B_AB.aoints.0" size=1572864 bytes
------------------------------------------------------------
               write      read    awrite     aread      wait
               -----      ----    ------     -----      ----
     calls:        3         1         0         2         2
   data(b): 1.57e+06  5.24e+05  0.00e+00  1.05e+06
   time(s): 0.00e+00  0.00e+00  0.00e+00  0.00e+00  0.00e+00
rate(mb/s): 0.00e+00  0.00e+00
------------------------------------------------------------


 Parallel integral file used      76 records with       0 large values



                   Four-Index Transformation
                   -------------------------
          Number of basis functions:             82
          Number of shells:                      38
          Number of occupied orbitals:            5
          Number of occ. correlated orbitals:     5
          Block length:                          16
          Superscript MO index range:      1 -    5
          Subscript MO index range:        1 -   82
          MO coefficients read from:  ./input_B_AB.movecs      
          Number of operator matrices in core:   30
          Half-transformed integrals produced

     Pass:    1     Index range:    1  -    5     Time:      1.32
 ------------------------------------------
 MP2 Energy (coupled cluster initial guess)
 ------------------------------------------
 Reference energy:            -76.041667672978775
 MP2 Corr. energy:             -0.224821416047007
 Total MP2 energy:            -76.266489089025782


 ****************************************************************************
              the segmented parallel ccsd program:    8 nodes
 ****************************************************************************




 level of theory    ccsd(t)
 number of core         0
 number of occupied     5
 number of virtual     77
 number of deleted      0
 total functions       82
 number of shells      38
 basis label          566



   ***** ccsd parameters *****
   iprt   =     0
   convi  =  0.100E-05
   maxit  =    20
   mxvec  =     5
 memory           1073731948
  Using  1 OpenMP thread(s) in CCSD
  avail0,avail1,avail0-avail1                 16510                16510                    0
  avail0,avail1,avail0-avail1                 16510                16511                   -1
  avail0,avail1,avail0-avail1                 16510                16526                  -16
  avail0,avail1,avail0-avail1                 16510                16526                  -16
  Restarting from old vector in ./input_B_AB.t2


-------------------------------------------------------------------------
 iter     correlation     delta       rms       T2     Non-T2      Main
             energy      energy      error      ampl     ampl      Block
                                                time     time      time
-------------------------------------------------------------------------
   1     -0.2260392085 -2.260D-01  2.498D-01     2.89     0.01     2.75
   2     -0.2269517147 -9.125D-04  9.280D-02     0.61     0.00     0.50
   3     -0.2311615030 -4.210D-03  2.258D-02     0.41     0.00     0.30
   4     -0.2317308602 -5.694D-04  6.121D-03     0.38     0.00     0.28
   5     -0.2320705191 -3.397D-04  7.269D-04     0.36     0.00     0.29
   6     -0.2321709260 -1.004D-04  8.803D-04     0.38     0.02     0.25
   7     -0.2321780569 -7.131D-06  2.345D-04     0.38     0.00     0.30
   8     -0.2321800242 -1.967D-06  4.930D-05     0.43     0.00     0.33
   9     -0.2321798046  2.196D-07  9.364D-06     0.46     0.00     0.35
  10     -0.2321792627  5.419D-07  4.336D-06     0.41     0.00     0.32
  11     -0.2321792860 -2.329D-08  1.681D-06     0.50     0.00     0.36
  12     -0.2321793062 -2.023D-08  4.114D-07     0.48     0.03     0.37
                  *************converged*************
-------------------------------------------------------------------------

 -----------
 CCSD Energy
 -----------
 Reference energy:             -76.041667672978775
 CCSD corr. energy:             -0.232179306211926
 Total CCSD energy:            -76.273846979190708


 --------------------------------
 Spin Component Scaled (SCS) CCSD
 --------------------------------
 Same spin contribution:                 -0.050615462745964
 Same spin scaling factor:                1.130000000000000
 Opposite spin contribution:             -0.181563843465962
 Opposite spin scaling fact.:             1.270000000000000
 SCS-CCSD correlation energy:            -0.287781554104711
 Total SCS-CCSD energy:                 -76.329449227083487
 memory           1073731948


*********triples calculation*********

nkpass=    1; nvpass=    1; memdrv=         170401; memtrn=         942207; memavail=     1073731548
 memory available/node                     1073731548
 total number of virtual orbitals        77
 number of virtuals per integral pass    77
 number of integral evaluations           1
 number of occupied per triples pass      5
 number of triples passes                 1

 commencing integral evaluation        1 at          11.13
  symmetry use  T
task         2 out of       741 done   0%  at       0.1 secs
task        41 out of       741 done   5%  at       0.2 secs
task        79 out of       741 done  10%  at       0.4 secs
task       121 out of       741 done  16%  at       0.8 secs
task       179 out of       741 done  24%  at       0.9 secs
task       188 out of       741 done  25%  at       1.0 secs
task       223 out of       741 done  30%  at       1.1 secs
task       282 out of       741 done  38%  at       1.2 secs
task       300 out of       741 done  40%  at       1.2 secs
task       334 out of       741 done  45%  at       1.3 secs
task       377 out of       741 done  50%  at       1.4 secs
task       416 out of       741 done  56%  at       1.5 secs
task       452 out of       741 done  60%  at       1.5 secs
task       482 out of       741 done  65%  at       1.6 secs
task       524 out of       741 done  70%  at       1.6 secs
task       598 out of       741 done  80%  at       1.7 secs
task       634 out of       741 done  85%  at       1.7 secs
task       673 out of       741 done  90%  at       1.8 secs
task       708 out of       741 done  95%  at       1.8 secs
 commencing triples evaluation - blocking       1
 ccsd(t): done        1 out of       77 progress:    1.3%
 ccsd(t): done        2 out of       77 progress:    2.6%
 ccsd(t): done        3 out of       77 progress:    3.9%
 ccsd(t): done        4 out of       77 progress:    5.2%
 ccsd(t): done        5 out of       77 progress:    6.5%
 ccsd(t): done        6 out of       77 progress:    7.8%
 ccsd(t): done        7 out of       77 progress:    9.1%
 ccsd(t): done        8 out of       77 progress:   10.4%
 ccsd(t): done        9 out of       77 progress:   11.7%
 ccsd(t): done       10 out of       77 progress:   13.0%
 ccsd(t): done       11 out of       77 progress:   14.3%
 ccsd(t): done       12 out of       77 progress:   15.6%
 ccsd(t): done       13 out of       77 progress:   16.9%
 ccsd(t): done       14 out of       77 progress:   18.2%
 ccsd(t): done       15 out of       77 progress:   19.5%
 ccsd(t): done       16 out of       77 progress:   20.8%
 ccsd(t): done       17 out of       77 progress:   22.1%
 ccsd(t): done       18 out of       77 progress:   23.4%
 ccsd(t): done       19 out of       77 progress:   24.7%
 ccsd(t): done       20 out of       77 progress:   26.0%
 ccsd(t): done       21 out of       77 progress:   27.3%
 ccsd(t): done       22 out of       77 progress:   28.6%
 ccsd(t): done       23 out of       77 progress:   29.9%
 ccsd(t): done       24 out of       77 progress:   31.2%
 ccsd(t): done       25 out of       77 progress:   32.5%
 ccsd(t): done       26 out of       77 progress:   33.8%
 ccsd(t): done       27 out of       77 progress:   35.1%
 ccsd(t): done       28 out of       77 progress:   36.4%
 ccsd(t): done       29 out of       77 progress:   37.7%
 ccsd(t): done       30 out of       77 progress:   39.0%
 ccsd(t): done       31 out of       77 progress:   40.3%
 ccsd(t): done       32 out of       77 progress:   41.6%
 ccsd(t): done       33 out of       77 progress:   42.9%
 ccsd(t): done       34 out of       77 progress:   44.2%
 ccsd(t): done       35 out of       77 progress:   45.5%
 ccsd(t): done       36 out of       77 progress:   46.8%
 ccsd(t): done       37 out of       77 progress:   48.1%
 ccsd(t): done       38 out of       77 progress:   49.4%
 ccsd(t): done       39 out of       77 progress:   50.6%
 ccsd(t): done       40 out of       77 progress:   51.9%
 ccsd(t): done       41 out of       77 progress:   53.2%
 ccsd(t): done       42 out of       77 progress:   54.5%
 ccsd(t): done       43 out of       77 progress:   55.8%
 ccsd(t): done       44 out of       77 progress:   57.1%
 ccsd(t): done       45 out of       77 progress:   58.4%
 ccsd(t): done       46 out of       77 progress:   59.7%
 ccsd(t): done       47 out of       77 progress:   61.0%
 ccsd(t): done       48 out of       77 progress:   62.3%
 ccsd(t): done       49 out of       77 progress:   63.6%
 ccsd(t): done       50 out of       77 progress:   64.9%
 ccsd(t): done       51 out of       77 progress:   66.2%
 ccsd(t): done       52 out of       77 progress:   67.5%
 ccsd(t): done       53 out of       77 progress:   68.8%
 ccsd(t): done       54 out of       77 progress:   70.1%
 ccsd(t): done       55 out of       77 progress:   71.4%
 ccsd(t): done       56 out of       77 progress:   72.7%
 ccsd(t): done       57 out of       77 progress:   74.0%
 ccsd(t): done       58 out of       77 progress:   75.3%
 ccsd(t): done       59 out of       77 progress:   76.6%
 ccsd(t): done       60 out of       77 progress:   77.9%
 ccsd(t): done       61 out of       77 progress:   79.2%
 ccsd(t): done       62 out of       77 progress:   80.5%
 ccsd(t): done       63 out of       77 progress:   81.8%
 ccsd(t): done       64 out of       77 progress:   83.1%
 ccsd(t): done       65 out of       77 progress:   84.4%
 ccsd(t): done       66 out of       77 progress:   85.7%
 ccsd(t): done       67 out of       77 progress:   87.0%
 ccsd(t): done       68 out of       77 progress:   88.3%
 ccsd(t): done       69 out of       77 progress:   89.6%
 ccsd(t): done       70 out of       77 progress:   90.9%
 ccsd(t): done       71 out of       77 progress:   92.2%
 ccsd(t): done       72 out of       77 progress:   93.5%
 ccsd(t): done       73 out of       77 progress:   94.8%
 ccsd(t): done       74 out of       77 progress:   96.1%
 ccsd(t): done       75 out of       77 progress:   97.4%
 ccsd(t): done       76 out of       77 progress:   98.7%
 ccsd(t): done       77 out of       77 progress:  100.0%
 Time for integral evaluation pass     1        1.94
 Time for triples evaluation pass      1        1.27

 pseudo-e(mp4)  -0.59682993105420E-02
 pseudo-e(mp5)   0.41112924808960E-03
        e(t)    -0.55571700624524E-02

 --------------
 CCSD(T) Energy
 --------------
 Reference energy:                     -76.041667672978775

 CCSD corr. energy:                     -0.232179306211926
 T(CCSD) corr. energy:                  -0.005968299310542
 Total CCSD+T(CCSD) energy:            -76.279815278501246

 CCSD corr. energy:                     -0.232179306211926
 (T) corr. energy:                      -0.005557170062452
 Total CCSD(T) energy:                 -76.279404149253153

 routine      calls  cpu(0)   cpu-min  cpu-ave  cpu-max   i/o 
 aoccsd          1     0.02     0.02     0.02     0.02    0.00
 iterdrv         1     0.26     0.25     0.26     0.26    0.00
 pampt          12     0.14     0.13     0.13     0.14    0.00
 t2pm           12     0.21     0.21     0.21     0.21    0.00
 sxy            12     0.66     0.16     0.43     0.66    0.00
 ints        68913     0.63     0.60     0.62     0.65    0.00
 f_write       186     0.24     0.16     0.22     0.24    0.00
 t2eri        1116     0.92     0.84     0.88     0.93    0.00
 idx2         1116     3.81     3.81     4.11     4.47    0.00
 idx34          12     0.02     0.01     0.01     0.02    0.00
 ht2pm          12     0.07     0.07     0.07     0.07    0.00
 itm            12     0.88     0.88     0.88     0.88    0.00
 pdiis          12     0.02     0.02     0.02     0.03    0.00
 r_read       1023     0.10     0.09     0.10     0.11    0.00
 triples         1     0.00     0.00     0.00     0.00    0.00
 rdtrpo          1     0.01     0.01     0.01     0.01    0.00
 trpmos          1     1.94     1.94     1.94     1.94    0.00
 trpdrv          1     0.74     0.74     0.76     0.81    0.00
 dovvv        1530     0.40     0.35     0.37     0.40    0.00
 doooo        1530     0.04     0.04     0.04     0.04    0.00
 tengy        1275     0.09     0.08     0.09     0.09    0.00
 Total                11.21    11.20    11.20    11.21    0.00

 Task  times  cpu:       14.3s     wall:       14.3s


                                NWChem Input Module
                                -------------------


 Summary of allocated global arrays
-----------------------------------
  No active global arrays


MA_summarize_allocated_blocks: starting scan ...
MA_summarize_allocated_blocks: scan completed: 0 heap blocks, 0 stack blocks
MA usage statistics:

	allocation statistics:
					      heap	     stack
					      ----	     -----
	current number of blocks	         0	         0
	maximum number of blocks	        18	        42
	current total bytes		         0	         0
	maximum total bytes		   8936432	7731415912
	maximum total K-bytes		      8937	   7731416
	maximum total M-bytes		         9	      7732


                                     CITATION
                                     --------
                Please cite the following reference when publishing
                           results obtained with NWChem:

          E. Apra, E. J. Bylaska, W. A. de Jong, N. Govind, K. Kowalski,
       T. P. Straatsma, M. Valiev, H. J. J. van Dam, Y. Alexeev, J. Anchell,
       V. Anisimov, F. W. Aquino, R. Atta-Fynn, J. Autschbach, N. P. Bauman,
     J. C. Becca, D. E. Bernholdt, K. Bhaskaran-Nair, S. Bogatko, P. Borowski,
         J. Boschen, J. Brabec, A. Bruner, E. Cauet, Y. Chen, G. N. Chuev,
      C. J. Cramer, J. Daily, M. J. O. Deegan, T. H. Dunning Jr., M. Dupuis,
   K. G. Dyall, G. I. Fann, S. A. Fischer, A. Fonari, H. Fruchtl, L. Gagliardi,
      J. Garza, N. Gawande, S. Ghosh, K. Glaesemann, A. W. Gotz, J. Hammond,
       V. Helms, E. D. Hermes, K. Hirao, S. Hirata, M. Jacquelin, L. Jensen,
   B. G. Johnson, H. Jonsson, R. A. Kendall, M. Klemm, R. Kobayashi, V. Konkov,
      S. Krishnamoorthy, M. Krishnan, Z. Lin, R. D. Lins, R. J. Littlefield,
      A. J. Logsdail, K. Lopata, W. Ma, A. V. Marenich, J. Martin del Campo,
   D. Mejia-Rodriguez, J. E. Moore, J. M. Mullin, T. Nakajima, D. R. Nascimento,
    J. A. Nichols, P. J. Nichols, J. Nieplocha, A. Otero-de-la-Roza, B. Palmer,
    A. Panyala, T. Pirojsirikul, B. Peng, R. Peverati, J. Pittner, L. Pollack,
   R. M. Richard, P. Sadayappan, G. C. Schatz, W. A. Shelton, D. W. Silverstein,
   D. M. A. Smith, T. A. Soares, D. Song, M. Swart, H. L. Taylor, G. S. Thomas,
            V. Tipparaju, D. G. Truhlar, K. Tsemekhman, T. Van Voorhis,
      A. Vazquez-Mayagoitia, P. Verma, O. Villa, A. Vishnu, K. D. Vogiatzis,
        D. Wang, J. H. Weare, M. J. Williamson, T. L. Windus, K. Wolinski,
        A. T. Wong, Q. Wu, C. Yang, Q. Yu, M. Zacharias, Z. Zhang, Y. Zhao,
                                and R. J. Harrison
                        "NWChem: Past, present, and future
                         J. Chem. Phys. 152, 184102 (2020)
                               doi:10.1063/5.0004997

                                      AUTHORS
                                      -------
  E. Apra, E. J. Bylaska, N. Govind, K. Kowalski, M. Valiev, D. Mejia-Rodriguez,
       A. Kunitsa, N. P. Bauman, A. Panyala, W. A. de Jong, T. P. Straatsma,
   H. J. J. van Dam, D. Wang, T. L. Windus, J. Hammond, J. Autschbach, A. Woods,
    K. Bhaskaran-Nair, J. Brabec, K. Lopata, S. A. Fischer, S. Krishnamoorthy,
     M. Jacquelin, W. Ma, M. Klemm, O. Villa, Y. Chen, V. Anisimov, F. Aquino,
     S. Hirata, M. T. Hackler, E. Hermes, L. Jensen, J. E. Moore, J. C. Becca,
      V. Konjkov, T. Risthaus, M. Malagoli, A. Marenich, A. Otero-de-la-Roza,
        J. Mullin, P. Nichols, R. Peverati, J. Pittner, Y. Zhao, P.-D. Fan,
        A. Fonari, M. J. Williamson, R. J. Harrison, J. R. Rehr, M. Dupuis,
     D. Silverstein, D. M. A. Smith, J. Nieplocha, V. Tipparaju, M. Krishnan,
     B. E. Van Kuiken, A. Vazquez-Mayagoitia, M. Swart, Q. Wu, T. Van Voorhis,
     A. A. Auer, M. Nooijen, L. D. Crosby, E. Brown, G. Cisneros, G. I. Fann,
   H. Fruchtl, J. Garza, K. Hirao, R. A. Kendall, J. A. Nichols, K. Tsemekhman,
    K. Wolinski, J. Anchell, D. E. Bernholdt, P. Borowski, T. Clark, D. Clerc,
   H. Dachsel, M. J. O. Deegan, K. Dyall, D. Elwood, E. Glendening, M. Gutowski,
   A. C. Hess, J. Jaffe, B. G. Johnson, J. Ju, R. Kobayashi, R. Kutteh, Z. Lin,
   R. Littlefield, X. Long, B. Meng, T. Nakajima, S. Niu, L. Pollack, M. Rosing,
   K. Glaesemann, G. Sandrone, M. Stave, H. Taylor, G. Thomas, J. H. van Lenthe,
                               A. T. Wong, Z. Zhang.

 Total times  cpu:       14.4s     wall:       14.4s
