 argument  1 = /var/folders/v1/k9l8hql13n1gcrjl_yh_gs5m0000gn/T/tmp_mr0wptg/input_dimer.txt
                                         
                                         


             Northwest Computational Chemistry Package (NWChem) 7.2.3
             --------------------------------------------------------


                    Environmental Molecular Sciences Laboratory
                       Pacific Northwest National Laboratory
                                Richland, WA 99352

                              Copyright (c) 1994-2022
                       Pacific Northwest National Laboratory
                            Battelle Memorial Institute

             NWChem is an open-source computational chemistry package
                        distributed under the terms of the
                      Educational Community License (ECL) 2.0
             A copy of the license is included with this distribution
                              in the LICENSE.TXT file

                                  ACKNOWLEDGMENT
                                  --------------

            This software and its documentation were developed at the
            EMSL at Pacific Northwest National Laboratory, a multiprogram
            national laboratory, operated for the U.S. Department of Energy
            by Battelle under Contract Number DE-AC05-76RL01830. Support
            for this work was provided by the Department of Energy Office
            of Biological and Environmental Research, Office of Basic
            Energy Sciences, and the Office of Advanced Scientific Computing.


           Job information
           ---------------

    hostname        = visitor-wireless1-147-155-221-109.ameslab.gov
    program         = nwchem
    date            = Wed Jul  2 15:16:15 2025

    compiled        = Thu_Dec_26_16:03:44_2024
    source          = /private/tmp/nwchem-20241226-24280-orrtsi/nwchem-7.2.3
    nwchem branch   = 7.2.3
    nwchem revision = d690e065
    ga revision     = 5.8.0
    use scalapack   = T
    input           = /var/folders/v1/k9l8hql13n1gcrjl_yh_gs5m0000gn/T/tmp_mr0wptg/input_dimer.txt
    prefix          = input_dimer.
    data base       = ./input_dimer.db
    status          = restart
    nproc           =        8
    time left       =     -1s



           Memory information
           ------------------

    heap     =  536870908 doubles =   4096.0 Mbytes
    stack    =  536870913 doubles =   4096.0 Mbytes
    global   = 1073741824 doubles =   8192.0 Mbytes (distinct from heap & stack)
    total    = 2147483645 doubles =  16384.0 Mbytes
    verify   = yes
    hardfail = no 


           Directory information
           ---------------------

  0 permanent = .
  0 scratch   = .


           Previous task information
           -------------------------

    Theory    = ccsd(t)                         
    Operation = energy                        
    Status    = ok                            
    Qmmm      = F
    Ignore    = F


           Geometries in the database
           --------------------------

       Name                              Natoms  Last Modified
       --------------------------------  ------  ------------------------
    1  geometry                               6  Wed Jul  2 15:15:08 2025  

  The geometry named "geometry" is the default for restart



           Basis sets in the database
           --------------------------

       Name                              Natoms  Last Modified
        --------------------------------  ------  ------------------------
    1  ao basis                               2  Wed Jul  2 15:15:08 2025  

  The basis set named "ao basis" is the default AO basis for restart




                                NWChem Input Module
                                -------------------



 Scaling coordinates for geometry "geometry" by  1.889725989
 (inverse scale =  0.529177249)

 CS  symmetry detected


                             Geometry "geometry" -> ""
                             -------------------------

 Output coordinates in angstroms (scale by  1.889725989 to convert to a.u.)

  No.       Tag          Charge          X              Y              Z
 ---- ---------------- ---------- -------------- -------------- --------------
    1 O                    8.0000    -0.09203306    -1.61147235     0.00000000
    2 H                    1.0000     0.50262376    -1.59538453    -0.76110301
    3 H                    1.0000     0.50262376    -1.59538453     0.76110301
    4 O                    8.0000    -0.02368223     1.48932474     0.00000000
    5 H                    1.0000    -0.03976257     2.08397499    -0.76109291
    6 H                    1.0000    -0.03976257     2.08397499     0.76109291

      Atomic Mass 
      ----------- 

      O                 15.994910
      H                  1.007825


 Effective nuclear repulsion energy (a.u.)      34.5653947837

            Nuclear Dipole moment (a.u.) 
            ----------------------------
        X                 Y               Z
 ---------------- ---------------- ----------------
     0.0000000000     0.0000000000     0.0000000000

      Symmetry information
      --------------------

 Group name             Cs        
 Group number              2
 Group order               2
 No. of unique centers     4

      Symmetry unique atoms

     1    2    4    5


            XYZ format geometry
            -------------------
     6
 geometry
 O                    -0.09203306    -1.61147235     0.00000000
 H                     0.50262376    -1.59538453    -0.76110301
 H                     0.50262376    -1.59538453     0.76110301
 O                    -0.02368223     1.48932474     0.00000000
 H                    -0.03976257     2.08397499    -0.76109291
 H                    -0.03976257     2.08397499     0.76109291

 ==============================================================================
                                internuclear distances
 ------------------------------------------------------------------------------
       center one      |      center two      | atomic units |  angstroms
 ------------------------------------------------------------------------------
    2 H                |   1 O                |     1.82547  |     0.96600
    3 H                |   1 O                |     1.82547  |     0.96600
    5 H                |   4 O                |     1.82545  |     0.96599
    6 H                |   4 O                |     1.82545  |     0.96599
 ------------------------------------------------------------------------------
                         number of included internuclear distances:          4
 ==============================================================================



 ==============================================================================
                                 internuclear angles
 ------------------------------------------------------------------------------
        center 1       |       center 2       |       center 3       |  degrees
 ------------------------------------------------------------------------------
    2 H                |   1 O                |   3 H                |   103.98
    5 H                |   4 O                |   6 H                |   103.98
 ------------------------------------------------------------------------------
                            number of included internuclear angles:          2
 ==============================================================================



  library name resolved from: environment
  library file name is: </opt/homebrew/Caskroom/mambaforge/base/envs/ames/share/nwchem/libraries/>
  
                      Basis "ao basis" -> "" (spherical)
                      -----
  O (Oxygen)
  ----------
            Exponent  Coefficients 
       -------------- ---------------------------------------------------------
  1 S  1.17200000E+04  0.000710
  1 S  1.75900000E+03  0.005470
  1 S  4.00800000E+02  0.027837
  1 S  1.13700000E+02  0.104800
  1 S  3.70300000E+01  0.283062
  1 S  1.32700000E+01  0.448719
  1 S  5.02500000E+00  0.270952
  1 S  1.01300000E+00  0.015458

  2 S  1.17200000E+04 -0.000160
  2 S  1.75900000E+03 -0.001263
  2 S  4.00800000E+02 -0.006267
  2 S  1.13700000E+02 -0.025716
  2 S  3.70300000E+01 -0.070924
  2 S  1.32700000E+01 -0.165411
  2 S  5.02500000E+00 -0.116955
  2 S  1.01300000E+00  0.557368

  3 S  3.02300000E-01  1.000000

  4 S  7.89600000E-02  1.000000

  5 P  1.77000000E+01  0.043018
  5 P  3.85400000E+00  0.228913
  5 P  1.04600000E+00  0.508728

  6 P  2.75300000E-01  1.000000

  7 P  6.85600000E-02  1.000000

  8 D  1.18500000E+00  1.000000

  9 D  3.32000000E-01  1.000000

  H (Hydrogen)
  ------------
            Exponent  Coefficients 
       -------------- ---------------------------------------------------------
  1 S  1.30100000E+01  0.019685
  1 S  1.96200000E+00  0.137977
  1 S  4.44600000E-01  0.478148

  2 S  1.22000000E-01  1.000000

  3 S  2.97400000E-02  1.000000

  4 P  7.27000000E-01  1.000000

  5 P  1.41000000E-01  1.000000



 Summary of "ao basis" -> "" (spherical)
 ------------------------------------------------------------------------------
       Tag                 Description            Shells   Functions and Types
 ---------------- ------------------------------  ------  ---------------------
 O                        aug-cc-pvdz                9       23   4s3p2d
 H                        aug-cc-pvdz                5        9   3s2p


                                 NWChem SCF Module
                                 -----------------



  ao basis        = "ao basis"
  functions       =    82
  atoms           =     6
  closed shells   =    10
  open shells     =     0
  charge          =   0.00
  wavefunction    = RHF 
  input vectors   = ./input_dimer.movecs
  output vectors  = ./input_dimer.movecs
  use symmetry    = T
  symmetry adapt  = T


 Summary of "ao basis" -> "ao basis" (spherical)
 ------------------------------------------------------------------------------
       Tag                 Description            Shells   Functions and Types
 ---------------- ------------------------------  ------  ---------------------
 O                        aug-cc-pvdz                9       23   4s3p2d
 H                        aug-cc-pvdz                5        9   3s2p


      Symmetry analysis of basis
      --------------------------

        a'         50
        a"         32


 Forming initial guess at       0.1s


 Loading old vectors from job with title :




      Symmetry analysis of molecular orbitals - initial
      -------------------------------------------------

  Numbering of irreducible representations: 

     1 a'          2 a"      

  Orbital symmetries:

     1 a'          2 a'          3 a'          4 a'          5 a"      
     6 a"          7 a'          8 a'          9 a'         10 a'      
    11 a'         12 a"         13 a'         14 a"         15 a'      
    16 a'         17 a'         18 a"         19 a'         20 a'      


 Starting SCF solution at       0.1s



 ----------------------------------------------
         Quadratically convergent ROHF

 Convergence threshold     :          1.000E-06
 Maximum no. of iterations :           30
 Final Fock-matrix accuracy:          1.000E-08
 ----------------------------------------------


 Integral file          = ./input_dimer.aoints.0
 Record size in doubles =  65536        No. of integs per rec  =  43688
 Max. records in memory =     17        Max. records in file   =   4261
 No. of bits per label  =      8        No. of bits per value  =     64


 #quartets = 1.451D+05 #integrals = 2.706D+06 #direct =  0.0% #cached =100.0%


File balance: exchanges=    12  moved=     9  time=   0.0


              iter       energy          gnorm     gmax       time
             ----- ------------------- --------- --------- --------
                 1     -152.0773122232  1.03D-01  2.79D-02      0.3
                 2     -152.0780394210  4.31D-03  9.64D-04      0.5
                 3     -152.0780421294  7.27D-06  1.81D-06      0.8
                 4     -152.0780421294  4.82D-08  1.18D-08      1.0


       Final RHF  results 
       ------------------ 

         Total SCF energy =   -152.078042129374
      One-electron energy =   -278.591020508609
      Two-electron energy =     91.947583595543
 Nuclear repulsion energy =     34.565394783692

        Time for solution =      0.9s



       Symmetry analysis of molecular orbitals - final
       -----------------------------------------------

  Numbering of irreducible representations: 

     1 a'          2 a"      

  Orbital symmetries:

     1 a'          2 a'          3 a'          4 a'          5 a"      
     6 a"          7 a'          8 a'          9 a'         10 a'      
    11 a'         12 a'         13 a"         14 a"         15 a'      
    16 a'         17 a'         18 a"         19 a'         20 a'      

             Final eigenvalues
             -----------------

              1      
    1  -20.5735
    2  -20.5578
    3   -1.3476
    4   -1.3319
    5   -0.7087
    6   -0.6934
    7   -0.5806
    8   -0.5648
    9   -0.5035
   10   -0.4861
   11    0.0348
   12    0.0531
   13    0.0540
   14    0.0766
   15    0.1712
   16    0.1970
   17    0.2138
   18    0.2258
   19    0.2307
   20    0.2459

                       ROHF Final Molecular Orbital Analysis
                       -------------------------------------

 Vector    2  Occ=2.000000D+00  E=-2.055782D+01  Symmetry=a'
              MO Center= -9.2D-02, -1.6D+00,  1.5D-18, r^2= 1.5D-02
   Bfn.  Coefficient  Atom+Function         Bfn.  Coefficient  Atom+Function  
  ----- ------------  ---------------      ----- ------------  ---------------
     1      1.001459  1 O  s          

 Vector    3  Occ=2.000000D+00  E=-1.347592D+00  Symmetry=a'
              MO Center= -2.7D-02,  1.6D+00,  4.0D-18, r^2= 5.6D-01
   Bfn.  Coefficient  Atom+Function         Bfn.  Coefficient  Atom+Function  
  ----- ------------  ---------------      ----- ------------  ---------------
    43      0.447698  4 O  s                 44      0.380598  4 O  s          
    65      0.201978  5 H  s                 74      0.201978  6 H  s          

 Vector    4  Occ=2.000000D+00  E=-1.331889D+00  Symmetry=a'
              MO Center=  7.5D-02, -1.6D+00, -1.9D-17, r^2= 5.6D-01
   Bfn.  Coefficient  Atom+Function         Bfn.  Coefficient  Atom+Function  
  ----- ------------  ---------------      ----- ------------  ---------------
     2      0.447694  1 O  s                  3      0.380913  1 O  s          
    24      0.202125  2 H  s                 33      0.202125  3 H  s          

 Vector    5  Occ=2.000000D+00  E=-7.087080D-01  Symmetry=a"
              MO Center= -2.8D-02,  1.7D+00, -2.0D-16, r^2= 8.3D-01
   Bfn.  Coefficient  Atom+Function         Bfn.  Coefficient  Atom+Function  
  ----- ------------  ---------------      ----- ------------  ---------------
    48      0.496655  4 O  pz                65     -0.346239  5 H  s          
    74      0.346239  6 H  s                 51      0.198343  4 O  pz         

 Vector    6  Occ=2.000000D+00  E=-6.934277D-01  Symmetry=a"
              MO Center=  1.2D-01, -1.6D+00,  2.0D-17, r^2= 8.3D-01
   Bfn.  Coefficient  Atom+Function         Bfn.  Coefficient  Atom+Function  
  ----- ------------  ---------------      ----- ------------  ---------------
     7      0.496449  1 O  pz                24     -0.346820  2 H  s          
    33      0.346820  3 H  s                 10      0.196802  1 O  pz         

 Vector    7  Occ=2.000000D+00  E=-5.806087D-01  Symmetry=a'
              MO Center= -2.1D-02,  1.4D+00,  6.0D-17, r^2= 9.0D-01
   Bfn.  Coefficient  Atom+Function         Bfn.  Coefficient  Atom+Function  
  ----- ------------  ---------------      ----- ------------  ---------------
    47      0.540714  4 O  py                50      0.319858  4 O  py         
    44     -0.312146  4 O  s                 65      0.210633  5 H  s          
    74      0.210633  6 H  s                 43     -0.150909  4 O  s          

 Vector    8  Occ=2.000000D+00  E=-5.647965D-01  Symmetry=a'
              MO Center= -1.3D-01, -1.6D+00,  1.6D-16, r^2= 7.7D-01
   Bfn.  Coefficient  Atom+Function         Bfn.  Coefficient  Atom+Function  
  ----- ------------  ---------------      ----- ------------  ---------------
     5      0.544892  1 O  px                 8      0.323621  1 O  px         
     3     -0.315562  1 O  s                 24      0.212502  2 H  s          
    33      0.212502  3 H  s                  2     -0.151863  1 O  s          

 Vector    9  Occ=2.000000D+00  E=-5.034588D-01  Symmetry=a'
              MO Center= -2.4D-02,  1.5D+00,  9.5D-19, r^2= 7.0D-01
   Bfn.  Coefficient  Atom+Function         Bfn.  Coefficient  Atom+Function  
  ----- ------------  ---------------      ----- ------------  ---------------
    46      0.627461  4 O  px                49      0.449626  4 O  px         

 Vector   10  Occ=2.000000D+00  E=-4.861288D-01  Symmetry=a'
              MO Center= -5.3D-02, -1.6D+00,  6.1D-16, r^2= 8.7D-01
   Bfn.  Coefficient  Atom+Function         Bfn.  Coefficient  Atom+Function  
  ----- ------------  ---------------      ----- ------------  ---------------
     6      0.625959  1 O  py                 9      0.446565  1 O  py         

 Vector   11  Occ=0.000000D+00  E= 3.478344D-02  Symmetry=a'
              MO Center=  1.6D-01,  1.8D+00,  3.4D-16, r^2= 1.3D+01
   Bfn.  Coefficient  Atom+Function         Bfn.  Coefficient  Atom+Function  
  ----- ------------  ---------------      ----- ------------  ---------------
    45      1.514630  4 O  s                 67     -0.759034  5 H  s          
    76     -0.759034  6 H  s                  4      0.516612  1 O  s          
    66     -0.476502  5 H  s                 75     -0.476502  6 H  s          
    53      0.264267  4 O  py                26     -0.220321  2 H  s          
    35     -0.220321  3 H  s                 44      0.201073  4 O  s          

 Vector   12  Occ=0.000000D+00  E= 5.311683D-02  Symmetry=a'
              MO Center=  7.5D-01, -1.1D+00,  1.3D-15, r^2= 1.7D+01
   Bfn.  Coefficient  Atom+Function         Bfn.  Coefficient  Atom+Function  
  ----- ------------  ---------------      ----- ------------  ---------------
     4      1.423555  1 O  s                 26     -0.994241  2 H  s          
    35     -0.994241  3 H  s                 45     -0.827456  4 O  s          
    67      0.653178  5 H  s                 76      0.653178  6 H  s          
    53     -0.412246  4 O  py                25     -0.403558  2 H  s          
    34     -0.403558  3 H  s                 66      0.298258  5 H  s          

 Vector   13  Occ=0.000000D+00  E= 5.395719D-02  Symmetry=a"
              MO Center=  2.8D-01,  1.1D+00, -3.2D-15, r^2= 1.9D+01
   Bfn.  Coefficient  Atom+Function         Bfn.  Coefficient  Atom+Function  
  ----- ------------  ---------------      ----- ------------  ---------------
    67      2.239954  5 H  s                 76     -2.239954  6 H  s          
    26      1.365089  2 H  s                 35     -1.365089  3 H  s          
    54      0.789899  4 O  pz                66      0.530326  5 H  s          
    75     -0.530326  6 H  s                 13      0.410997  1 O  pz         
    25      0.393074  2 H  s                 34     -0.393074  3 H  s          

 Vector   14  Occ=0.000000D+00  E= 7.657982D-02  Symmetry=a"
              MO Center=  5.6D-01, -3.0D-01, -3.4D-15, r^2= 2.2D+01
   Bfn.  Coefficient  Atom+Function         Bfn.  Coefficient  Atom+Function  
  ----- ------------  ---------------      ----- ------------  ---------------
    26      3.056921  2 H  s                 35     -3.056921  3 H  s          
    67     -2.406440  5 H  s                 76      2.406440  6 H  s          
    13      0.778384  1 O  pz                54     -0.504180  4 O  pz         
    25      0.440509  2 H  s                 34     -0.440509  3 H  s          
    66     -0.330424  5 H  s                 75      0.330424  6 H  s          

 Vector   15  Occ=0.000000D+00  E= 1.712249D-01  Symmetry=a'
              MO Center= -3.9D-01, -7.2D-01, -1.0D-16, r^2= 1.1D+01
   Bfn.  Coefficient  Atom+Function         Bfn.  Coefficient  Atom+Function  
  ----- ------------  ---------------      ----- ------------  ---------------
     4      4.487544  1 O  s                 25     -2.006295  2 H  s          
    34     -2.006295  3 H  s                 11      1.832834  1 O  px         
    53      1.512113  4 O  py                45      1.003185  4 O  s          
    12      0.932323  1 O  py                66     -0.577518  5 H  s          
    75     -0.577518  6 H  s                 67     -0.379393  5 H  s          

 Vector   16  Occ=0.000000D+00  E= 1.969596D-01  Symmetry=a'
              MO Center= -1.6D-01,  2.0D+00, -9.4D-16, r^2= 1.0D+01
   Bfn.  Coefficient  Atom+Function         Bfn.  Coefficient  Atom+Function  
  ----- ------------  ---------------      ----- ------------  ---------------
    45      4.899732  4 O  s                 66     -1.803244  5 H  s          
    75     -1.803244  6 H  s                 53      1.727605  4 O  py         
    67     -0.979313  5 H  s                 76     -0.979313  6 H  s          
    52     -0.560374  4 O  px                73     -0.435251  5 H  pz         
    82      0.435251  6 H  pz                11     -0.303269  1 O  px         

 Vector   17  Occ=0.000000D+00  E= 2.137779D-01  Symmetry=a'
              MO Center=  3.8D-01,  5.5D-01,  1.3D-15, r^2= 1.0D+01
   Bfn.  Coefficient  Atom+Function         Bfn.  Coefficient  Atom+Function  
  ----- ------------  ---------------      ----- ------------  ---------------
     4      3.141684  1 O  s                 45     -1.920794  4 O  s          
    11      1.348932  1 O  px                25     -1.302201  2 H  s          
    34     -1.302201  3 H  s                 52     -1.291599  4 O  px         
    66      0.603594  5 H  s                 75      0.603594  6 H  s          
    26     -0.443414  2 H  s                 35     -0.443414  3 H  s          

 Vector   18  Occ=0.000000D+00  E= 2.258264D-01  Symmetry=a"
              MO Center=  3.5D-02,  6.0D-01,  4.3D-15, r^2= 1.2D+01
   Bfn.  Coefficient  Atom+Function         Bfn.  Coefficient  Atom+Function  
  ----- ------------  ---------------      ----- ------------  ---------------
    54      2.620481  4 O  pz                66      2.255321  5 H  s          
    75     -2.255321  6 H  s                 67      2.008096  5 H  s          
    76     -2.008096  6 H  s                 25      1.618338  2 H  s          
    34     -1.618338  3 H  s                 26      1.393577  2 H  s          
    35     -1.393577  3 H  s                 13      1.269055  1 O  pz         

 Vector   19  Occ=0.000000D+00  E= 2.307492D-01  Symmetry=a'
              MO Center=  4.2D-01, -1.2D+00,  3.3D-16, r^2= 8.9D+00
   Bfn.  Coefficient  Atom+Function         Bfn.  Coefficient  Atom+Function  
  ----- ------------  ---------------      ----- ------------  ---------------
     4      1.595223  1 O  s                 53     -1.104858  4 O  py         
    26     -0.798491  2 H  s                 35     -0.798491  3 H  s          
    11     -0.518430  1 O  px                45      0.484978  4 O  s          
    12     -0.439845  1 O  py                30      0.429579  2 H  px         
    39      0.429579  3 H  px                32     -0.414571  2 H  pz         

 Vector   20  Occ=0.000000D+00  E= 2.459242D-01  Symmetry=a'
              MO Center= -3.5D-01, -1.5D+00,  6.7D-17, r^2= 9.6D+00
   Bfn.  Coefficient  Atom+Function         Bfn.  Coefficient  Atom+Function  
  ----- ------------  ---------------      ----- ------------  ---------------
    12      1.622761  1 O  py                 4     -1.395804  1 O  s          
    45     -0.474836  4 O  s                 26      0.456417  2 H  s          
    35      0.456417  3 H  s                 25      0.445506  2 H  s          
    34      0.445506  3 H  s                 66      0.415453  5 H  s          
    75      0.415453  6 H  s                 67     -0.333707  5 H  s          

 Vector   21  Occ=0.000000D+00  E= 2.506455D-01  Symmetry=a"
              MO Center= -2.9D-01, -5.3D-01,  2.9D-15, r^2= 1.3D+01
   Bfn.  Coefficient  Atom+Function         Bfn.  Coefficient  Atom+Function  
  ----- ------------  ---------------      ----- ------------  ---------------
    13      2.877899  1 O  pz                26      2.408069  2 H  s          
    35     -2.408069  3 H  s                 25      2.158319  2 H  s          
    34     -2.158319  3 H  s                 67     -1.915577  5 H  s          
    76      1.915577  6 H  s                 54     -1.772865  4 O  pz         
    66     -1.349667  5 H  s                 75      1.349667  6 H  s          

 Vector   22  Occ=0.000000D+00  E= 2.842305D-01  Symmetry=a'
              MO Center= -1.5D-01,  5.4D-01, -2.1D-16, r^2= 1.0D+01
   Bfn.  Coefficient  Atom+Function         Bfn.  Coefficient  Atom+Function  
  ----- ------------  ---------------      ----- ------------  ---------------
    53      2.234816  4 O  py                12      1.528579  1 O  py         
    66     -1.193994  5 H  s                 75     -1.193994  6 H  s          
     4      0.930892  1 O  s                 45      0.892122  4 O  s          
    11     -0.568892  1 O  px                73      0.323179  5 H  pz         
    82     -0.323179  6 H  pz                67     -0.272414  5 H  s          

 Vector   23  Occ=0.000000D+00  E= 2.980397D-01  Symmetry=a"
              MO Center=  6.0D-02,  2.7D-01,  4.4D-18, r^2= 8.4D+00
   Bfn.  Coefficient  Atom+Function         Bfn.  Coefficient  Atom+Function  
  ----- ------------  ---------------      ----- ------------  ---------------
    13      1.050822  1 O  pz                25      0.917212  2 H  s          
    34     -0.917212  3 H  s                 54     -0.632181  4 O  pz         
    66     -0.565978  5 H  s                 75      0.565978  6 H  s          
    67      0.474843  5 H  s                 76     -0.474843  6 H  s          
    72     -0.394608  5 H  py                81      0.394608  6 H  py         

 Vector   24  Occ=0.000000D+00  E= 3.067110D-01  Symmetry=a"
              MO Center=  4.9D-01, -5.8D-01, -8.2D-16, r^2= 7.0D+00
   Bfn.  Coefficient  Atom+Function         Bfn.  Coefficient  Atom+Function  
  ----- ------------  ---------------      ----- ------------  ---------------
    66      1.007852  5 H  s                 75     -1.007852  6 H  s          
    54      0.931079  4 O  pz                26     -0.664560  2 H  s          
    35      0.664560  3 H  s                 30      0.481851  2 H  px         
    39     -0.481851  3 H  px                32     -0.396615  2 H  pz         
    41     -0.396615  3 H  pz                67      0.392363  5 H  s          

 Vector   25  Occ=0.000000D+00  E= 3.498502D-01  Symmetry=a'
              MO Center=  1.8D-01, -1.9D-01,  6.7D-16, r^2= 6.2D+00
   Bfn.  Coefficient  Atom+Function         Bfn.  Coefficient  Atom+Function  
  ----- ------------  ---------------      ----- ------------  ---------------
    45      3.324977  4 O  s                 66     -1.662641  5 H  s          
    75     -1.662641  6 H  s                  4      1.014177  1 O  s          
    25     -0.774797  2 H  s                 34     -0.774797  3 H  s          
    50      0.416041  4 O  py                30      0.380497  2 H  px         
    39      0.380497  3 H  px                32      0.357949  2 H  pz         

 Vector   26  Occ=0.000000D+00  E= 3.781028D-01  Symmetry=a'
              MO Center= -1.5D-02, -3.2D-01, -6.8D-16, r^2= 7.2D+00
   Bfn.  Coefficient  Atom+Function         Bfn.  Coefficient  Atom+Function  
  ----- ------------  ---------------      ----- ------------  ---------------
    45      4.472680  4 O  s                  4     -3.067315  1 O  s          
    66     -2.037819  5 H  s                 75     -2.037819  6 H  s          
    25      1.430665  2 H  s                 34      1.430665  3 H  s          
    12     -1.003216  1 O  py                30     -0.627810  2 H  px         
    39     -0.627810  3 H  px                50      0.385311  4 O  py         

 Vector   27  Occ=0.000000D+00  E= 3.902988D-01  Symmetry=a"
              MO Center= -7.9D-02,  2.0D+00, -4.2D-16, r^2= 4.5D+00
   Bfn.  Coefficient  Atom+Function         Bfn.  Coefficient  Atom+Function  
  ----- ------------  ---------------      ----- ------------  ---------------
    71      1.121914  5 H  px                80     -1.121914  6 H  px         
    13     -0.435010  1 O  pz                66      0.322339  5 H  s          
    75     -0.322339  6 H  s                 54      0.303033  4 O  pz         
    26     -0.277626  2 H  s                 35      0.277626  3 H  s          
    25     -0.251821  2 H  s                 34      0.251821  3 H  s          

 Vector   28  Occ=0.000000D+00  E= 4.259614D-01  Symmetry=a'
              MO Center=  9.2D-02,  6.2D-01,  4.3D-16, r^2= 7.5D+00
   Bfn.  Coefficient  Atom+Function         Bfn.  Coefficient  Atom+Function  
  ----- ------------  ---------------      ----- ------------  ---------------
    45      1.649226  4 O  s                  4      1.318534  1 O  s          
    66     -0.947454  5 H  s                 75     -0.947454  6 H  s          
    71      0.811126  5 H  px                80      0.811126  6 H  px         
    12      0.775831  1 O  py                52     -0.743246  4 O  px         
    53      0.711633  4 O  py                25     -0.675955  2 H  s          

 Vector   29  Occ=0.000000D+00  E= 4.644658D-01  Symmetry=a"
              MO Center=  4.2D-01, -7.8D-01, -5.3D-16, r^2= 7.2D+00
   Bfn.  Coefficient  Atom+Function         Bfn.  Coefficient  Atom+Function  
  ----- ------------  ---------------      ----- ------------  ---------------
    66      1.767545  5 H  s                 75     -1.767545  6 H  s          
    25     -1.139912  2 H  s                 34      1.139912  3 H  s          
    31      1.088411  2 H  py                40     -1.088411  3 H  py         
    54      1.015198  4 O  pz                73      0.646827  5 H  pz         
    82      0.646827  6 H  pz                32     -0.634424  2 H  pz         

 Vector   30  Occ=0.000000D+00  E= 4.664180D-01  Symmetry=a'
              MO Center=  5.5D-02,  4.6D-01, -5.6D-16, r^2= 8.1D+00
   Bfn.  Coefficient  Atom+Function         Bfn.  Coefficient  Atom+Function  
  ----- ------------  ---------------      ----- ------------  ---------------
    45     -3.750720  4 O  s                  4      3.505425  1 O  s          
    25     -2.130261  2 H  s                 34     -2.130261  3 H  s          
    53     -2.027740  4 O  py                66      1.946908  5 H  s          
    75      1.946908  6 H  s                 11      1.549291  1 O  px         
    72      0.552616  5 H  py                81      0.552616  6 H  py         

 Vector   31  Occ=0.000000D+00  E= 5.022378D-01  Symmetry=a'
              MO Center= -1.3D-01,  2.3D-01, -3.9D-15, r^2= 8.5D+00
   Bfn.  Coefficient  Atom+Function         Bfn.  Coefficient  Atom+Function  
  ----- ------------  ---------------      ----- ------------  ---------------
     4      5.878712  1 O  s                 25     -2.749331  2 H  s          
    34     -2.749331  3 H  s                 53      1.914778  4 O  py         
    12      1.844312  1 O  py                11      1.119213  1 O  px         
    52      1.087481  4 O  px                71     -0.844287  5 H  px         
    80     -0.844287  6 H  px                31     -0.665123  2 H  py         


 center of mass
 --------------
 x =  -0.04815397 y =  -0.05083072 z =   0.00000000

 moments of inertia (a.u.)
 ------------------
         332.850869778602          -0.000053888887           0.000000000000
          -0.000053888887          10.601321140000           0.000000000000
           0.000000000000           0.000000000000         326.773809545713

  Mulliken analysis of the total density
  --------------------------------------

    Atom       Charge   Shell Charges
 -----------   ------   -------------------------------------------------------
    1 O    8     8.31   2.00  0.84  0.82  0.08  2.82  1.64  0.11  0.01 -0.02
    2 H    1     0.84   0.72  0.03 -0.00  0.08  0.02
    3 H    1     0.84   0.72  0.03 -0.00  0.08  0.02
    4 O    8     8.35   2.00  0.84  0.82  0.09  2.81  1.64  0.14  0.01 -0.02
    5 H    1     0.83   0.72  0.02 -0.00  0.08  0.01
    6 H    1     0.83   0.72  0.02 -0.00  0.08  0.01

       Multipole analysis of the density wrt the origin
       ------------------------------------------------

     L   x y z        total         open         nuclear
     -   - - -        -----         ----         -------
     0   0 0 0     -0.000000      0.000000     20.000000

     1   1 0 0      0.742359      0.000000      0.000000
     1   0 1 0      0.841014      0.000000      0.000000
     1   0 0 1     -0.000000      0.000000      0.000000

     2   2 0 0    -10.239249      0.000000      2.073613
     2   1 1 0     -2.554214      0.000000     -3.089610
     2   1 0 1      0.000000      0.000000      0.000000
     2   0 2 0     -6.084084      0.000000    186.751871
     2   0 1 1      0.000000      0.000000      0.000000
     2   0 0 2     -6.396808      0.000000      8.274443


------------------------------------------------------------
EAF file 0: "./input_dimer.aoints.0" size=1572864 bytes
------------------------------------------------------------
               write      read    awrite     aread      wait
               -----      ----    ------     -----      ----
     calls:        3         1         0         2         2
   data(b): 1.57e+06  5.24e+05  0.00e+00  1.05e+06
   time(s): 0.00e+00  0.00e+00  0.00e+00  0.00e+00  0.00e+00
rate(mb/s): 0.00e+00  0.00e+00
------------------------------------------------------------


 Parallel integral file used      66 records with       0 large values



                   Four-Index Transformation
                   -------------------------
          Number of basis functions:             82
          Number of shells:                      38
          Number of occupied orbitals:           10
          Number of occ. correlated orbitals:    10
          Block length:                          16
          Superscript MO index range:      1 -   10
          Subscript MO index range:        1 -   82
          MO coefficients read from:  ./input_dimer.movecs     
          Number of operator matrices in core:  110
          Half-transformed integrals produced

     Pass:    1     Index range:    1  -   10     Time:      2.09
 ------------------------------------------
 MP2 Energy (coupled cluster initial guess)
 ------------------------------------------
 Reference energy:           -152.078042129374069
 MP2 Corr. energy:             -0.446299611892100
 Total MP2 energy:           -152.524341741266170


 ****************************************************************************
              the segmented parallel ccsd program:    8 nodes
 ****************************************************************************




 level of theory    ccsd(t)
 number of core         0
 number of occupied    10
 number of virtual     72
 number of deleted      0
 total functions       82
 number of shells      38
 basis label          566



   ***** ccsd parameters *****
   iprt   =     0
   convi  =  0.100E-05
   maxit  =    20
   mxvec  =     5
 memory           1073724036
  Using  1 OpenMP thread(s) in CCSD
  avail0,avail1,avail0-avail1                 17931                17931                    0
  avail0,avail1,avail0-avail1                 17931                17932                   -1
  avail0,avail1,avail0-avail1                 17931                17947                  -16
  avail0,avail1,avail0-avail1                 17931                17947                  -16
  Restarting from old vector in ./input_dimer.t2


-------------------------------------------------------------------------
 iter     correlation     delta       rms       T2     Non-T2      Main
             energy      energy      error      ampl     ampl      Block
                                                time     time      time
-------------------------------------------------------------------------
   1     -0.4525528163 -4.526D-01  1.952D-01     2.73     0.00     2.37
   2     -0.4561753600 -3.623D-03  2.334D-01     1.05     0.00     0.72
   3     -0.4600776345 -3.902D-03  5.355D-02     1.62     0.00     1.28
   4     -0.4608504559 -7.728D-04  2.202D-02     2.29     0.03     0.74
   5     -0.4611251533 -2.747D-04  2.378D-03     1.12     0.00     0.72
   6     -0.4612220404 -9.689D-05  5.225D-04     2.09     0.03     1.51
   7     -0.4612371945 -1.515D-05  1.970D-04     1.74     0.00     1.13
   8     -0.4612381723 -9.778D-07  7.671D-05     1.13     0.00     0.82
   9     -0.4612385377 -3.654D-07  2.842D-05     1.45     0.00     0.66
  10     -0.4612370316  1.506D-06  2.524D-05     1.26     0.00     0.91
  11     -0.4612370122  1.938D-08  1.369D-05     1.04     0.00     0.70
  12     -0.4612369113  1.009D-07  6.519D-06     1.62     0.00     0.89
  13     -0.4612369281 -1.674D-08  2.528D-06     1.50     0.00     1.17
  14     -0.4612369501 -2.203D-08  5.957D-07     1.14     0.00     0.76
                  *************converged*************
-------------------------------------------------------------------------

 -----------
 CCSD Energy
 -----------
 Reference energy:            -152.078042129374069
 CCSD corr. energy:             -0.461236950080420
 Total CCSD energy:           -152.539279079454502


 --------------------------------
 Spin Component Scaled (SCS) CCSD
 --------------------------------
 Same spin contribution:                 -0.100930660474306
 Same spin scaling factor:                1.130000000000000
 Opposite spin contribution:             -0.360306289606114
 Opposite spin scaling fact.:             1.270000000000000
 SCS-CCSD correlation energy:            -0.571640634135731
 Total SCS-CCSD energy:                -152.649682763509787
 memory           1073724036


*********triples calculation*********

nkpass=    1; nvpass=    1; memdrv=         271656; memtrn=         680678; memavail=     1073723300
 memory available/node                     1073723300
 total number of virtual orbitals        72
 number of virtuals per integral pass    72
 number of integral evaluations           1
 number of occupied per triples pass     10
 number of triples passes                 1

 commencing integral evaluation        1 at          25.37
  symmetry use  T
task         7 out of       741 done   0%  at       0.1 secs
task        41 out of       741 done   5%  at       0.4 secs
task        87 out of       741 done  11%  at       0.6 secs
task       143 out of       741 done  19%  at       0.7 secs
task       153 out of       741 done  20%  at       0.8 secs
task       192 out of       741 done  25%  at       0.9 secs
task       235 out of       741 done  31%  at       1.0 secs
task       260 out of       741 done  35%  at       1.1 secs
task       307 out of       741 done  41%  at       1.4 secs
task       340 out of       741 done  45%  at       1.6 secs
task       375 out of       741 done  50%  at       1.7 secs
task       411 out of       741 done  55%  at       2.3 secs
task       456 out of       741 done  61%  at       2.5 secs
task       483 out of       741 done  65%  at       2.6 secs
task       519 out of       741 done  70%  at       2.6 secs
task       564 out of       741 done  76%  at       2.8 secs
task       613 out of       741 done  82%  at       3.1 secs
task       673 out of       741 done  90%  at       3.2 secs
task       707 out of       741 done  95%  at       3.4 secs
 commencing triples evaluation - blocking       1
 ccsd(t): done        1 out of       72 progress:    1.4%
 ccsd(t): done        2 out of       72 progress:    2.8%
 ccsd(t): done        3 out of       72 progress:    4.2%
 ccsd(t): done        4 out of       72 progress:    5.6%
 ccsd(t): done        5 out of       72 progress:    6.9%
 ccsd(t): done        6 out of       72 progress:    8.3%
 ccsd(t): done        7 out of       72 progress:    9.7%
 ccsd(t): done        8 out of       72 progress:   11.1%
 ccsd(t): done        9 out of       72 progress:   12.5%
 ccsd(t): done       10 out of       72 progress:   13.9%
 ccsd(t): done       11 out of       72 progress:   15.3%
 ccsd(t): done       12 out of       72 progress:   16.7%
 ccsd(t): done       13 out of       72 progress:   18.1%
 ccsd(t): done       14 out of       72 progress:   19.4%
 ccsd(t): done       15 out of       72 progress:   20.8%
 ccsd(t): done       16 out of       72 progress:   22.2%
 ccsd(t): done       17 out of       72 progress:   23.6%
 ccsd(t): done       18 out of       72 progress:   25.0%
 ccsd(t): done       19 out of       72 progress:   26.4%
 ccsd(t): done       20 out of       72 progress:   27.8%
 ccsd(t): done       21 out of       72 progress:   29.2%
 ccsd(t): done       22 out of       72 progress:   30.6%
 ccsd(t): done       23 out of       72 progress:   31.9%
 ccsd(t): done       24 out of       72 progress:   33.3%
 ccsd(t): done       25 out of       72 progress:   34.7%
 ccsd(t): done       26 out of       72 progress:   36.1%
 ccsd(t): done       27 out of       72 progress:   37.5%
 ccsd(t): done       28 out of       72 progress:   38.9%
 ccsd(t): done       29 out of       72 progress:   40.3%
 ccsd(t): done       30 out of       72 progress:   41.7%
 ccsd(t): done       31 out of       72 progress:   43.1%
 ccsd(t): done       32 out of       72 progress:   44.4%
 ccsd(t): done       33 out of       72 progress:   45.8%
 ccsd(t): done       34 out of       72 progress:   47.2%
 ccsd(t): done       35 out of       72 progress:   48.6%
 ccsd(t): done       36 out of       72 progress:   50.0%
 ccsd(t): done       37 out of       72 progress:   51.4%
 ccsd(t): done       38 out of       72 progress:   52.8%
 ccsd(t): done       39 out of       72 progress:   54.2%
 ccsd(t): done       40 out of       72 progress:   55.6%
 ccsd(t): done       41 out of       72 progress:   56.9%
 ccsd(t): done       42 out of       72 progress:   58.3%
 ccsd(t): done       43 out of       72 progress:   59.7%
 ccsd(t): done       44 out of       72 progress:   61.1%
 ccsd(t): done       45 out of       72 progress:   62.5%
 ccsd(t): done       46 out of       72 progress:   63.9%
 ccsd(t): done       47 out of       72 progress:   65.3%
 ccsd(t): done       48 out of       72 progress:   66.7%
 ccsd(t): done       49 out of       72 progress:   68.1%
 ccsd(t): done       50 out of       72 progress:   69.4%
 ccsd(t): done       51 out of       72 progress:   70.8%
 ccsd(t): done       52 out of       72 progress:   72.2%
 ccsd(t): done       53 out of       72 progress:   73.6%
 ccsd(t): done       54 out of       72 progress:   75.0%
 ccsd(t): done       55 out of       72 progress:   76.4%
 ccsd(t): done       56 out of       72 progress:   77.8%
 ccsd(t): done       57 out of       72 progress:   79.2%
 ccsd(t): done       58 out of       72 progress:   80.6%
 ccsd(t): done       59 out of       72 progress:   81.9%
 ccsd(t): done       60 out of       72 progress:   83.3%
 ccsd(t): done       61 out of       72 progress:   84.7%
 ccsd(t): done       62 out of       72 progress:   86.1%
 ccsd(t): done       63 out of       72 progress:   87.5%
 ccsd(t): done       64 out of       72 progress:   88.9%
 ccsd(t): done       65 out of       72 progress:   90.3%
 ccsd(t): done       66 out of       72 progress:   91.7%
 ccsd(t): done       67 out of       72 progress:   93.1%
 ccsd(t): done       68 out of       72 progress:   94.4%
 ccsd(t): done       69 out of       72 progress:   95.8%
 ccsd(t): done       70 out of       72 progress:   97.2%
 ccsd(t): done       71 out of       72 progress:   98.6%
 ccsd(t): done       72 out of       72 progress:  100.0%
 Time for integral evaluation pass     1        3.76
 Time for triples evaluation pass      1        7.38

 pseudo-e(mp4)  -0.11638837916881E-01
 pseudo-e(mp5)   0.83641532427196E-03
        e(t)    -0.10802422592609E-01

 --------------
 CCSD(T) Energy
 --------------
 Reference energy:                    -152.078042129374069

 CCSD corr. energy:                     -0.461236950080420
 T(CCSD) corr. energy:                  -0.011638837916881
 Total CCSD+T(CCSD) energy:           -152.550917917371379

 CCSD corr. energy:                     -0.461236950080420
 (T) corr. energy:                      -0.010802422592609
 Total CCSD(T) energy:                -152.550081502047107

 routine      calls  cpu(0)   cpu-min  cpu-ave  cpu-max   i/o 
 aoccsd          1     0.07     0.07     0.07     0.07    0.00
 iterdrv         1     0.12     0.12     0.12     0.14    0.00
 pampt          14     1.01     1.00     1.01     1.01    0.00
 t2pm           14     0.99     0.99     0.99     0.99    0.00
 sxy            14     1.72     0.53     1.30     1.72    0.00
 ints        68610     0.59     0.54     0.57     0.61    0.00
 f_write       186     0.04     0.04     0.04     0.04    0.00
 t2eri        1302     2.90     2.74     2.86     3.02    0.00
 idx2         1302     8.87     8.87     9.36    10.21    0.00
 idx34          14     0.05     0.05     0.05     0.06    0.00
 ht2pm          14     0.56     0.56     0.56     0.56    0.00
 itm            14     4.85     4.85     4.86     4.86    0.00
 pdiis          14     0.06     0.04     0.06     0.06    0.00
 r_read       1209     0.17     0.15     0.17     0.20    0.00
 triples         1     0.01     0.01     0.01     0.01    0.00
 rdtrpo          1     0.02     0.02     0.02     0.02    0.00
 trpmos          1     3.76     3.75     3.76     3.76    0.00
 trpdrv          1     4.11     4.11     4.32     4.56    0.00
 dovvv       10230     2.21     1.92     2.08     2.21    0.00
 doooo       10230     0.40     0.33     0.37     0.40    0.00
 tengy        9300     0.65     0.54     0.61     0.65    0.00
 Total                33.16    33.16    33.17    33.18    0.00

 Task  times  cpu:       36.5s     wall:       36.5s


                                NWChem Input Module
                                -------------------


 Summary of allocated global arrays
-----------------------------------
  No active global arrays


MA_summarize_allocated_blocks: starting scan ...
MA_summarize_allocated_blocks: scan completed: 0 heap blocks, 0 stack blocks
MA usage statistics:

	allocation statistics:
					      heap	     stack
					      ----	     -----
	current number of blocks	         0	         0
	maximum number of blocks	        18	        42
	current total bytes		         0	         0
	maximum total bytes		   8999728	7731416168
	maximum total K-bytes		      9000	   7731417
	maximum total M-bytes		         9	      7732


                                     CITATION
                                     --------
                Please cite the following reference when publishing
                           results obtained with NWChem:

          E. Apra, E. J. Bylaska, W. A. de Jong, N. Govind, K. Kowalski,
       T. P. Straatsma, M. Valiev, H. J. J. van Dam, Y. Alexeev, J. Anchell,
       V. Anisimov, F. W. Aquino, R. Atta-Fynn, J. Autschbach, N. P. Bauman,
     J. C. Becca, D. E. Bernholdt, K. Bhaskaran-Nair, S. Bogatko, P. Borowski,
         J. Boschen, J. Brabec, A. Bruner, E. Cauet, Y. Chen, G. N. Chuev,
      C. J. Cramer, J. Daily, M. J. O. Deegan, T. H. Dunning Jr., M. Dupuis,
   K. G. Dyall, G. I. Fann, S. A. Fischer, A. Fonari, H. Fruchtl, L. Gagliardi,
      J. Garza, N. Gawande, S. Ghosh, K. Glaesemann, A. W. Gotz, J. Hammond,
       V. Helms, E. D. Hermes, K. Hirao, S. Hirata, M. Jacquelin, L. Jensen,
   B. G. Johnson, H. Jonsson, R. A. Kendall, M. Klemm, R. Kobayashi, V. Konkov,
      S. Krishnamoorthy, M. Krishnan, Z. Lin, R. D. Lins, R. J. Littlefield,
      A. J. Logsdail, K. Lopata, W. Ma, A. V. Marenich, J. Martin del Campo,
   D. Mejia-Rodriguez, J. E. Moore, J. M. Mullin, T. Nakajima, D. R. Nascimento,
    J. A. Nichols, P. J. Nichols, J. Nieplocha, A. Otero-de-la-Roza, B. Palmer,
    A. Panyala, T. Pirojsirikul, B. Peng, R. Peverati, J. Pittner, L. Pollack,
   R. M. Richard, P. Sadayappan, G. C. Schatz, W. A. Shelton, D. W. Silverstein,
   D. M. A. Smith, T. A. Soares, D. Song, M. Swart, H. L. Taylor, G. S. Thomas,
            V. Tipparaju, D. G. Truhlar, K. Tsemekhman, T. Van Voorhis,
      A. Vazquez-Mayagoitia, P. Verma, O. Villa, A. Vishnu, K. D. Vogiatzis,
        D. Wang, J. H. Weare, M. J. Williamson, T. L. Windus, K. Wolinski,
        A. T. Wong, Q. Wu, C. Yang, Q. Yu, M. Zacharias, Z. Zhang, Y. Zhao,
                                and R. J. Harrison
                        "NWChem: Past, present, and future
                         J. Chem. Phys. 152, 184102 (2020)
                               doi:10.1063/5.0004997

                                      AUTHORS
                                      -------
  E. Apra, E. J. Bylaska, N. Govind, K. Kowalski, M. Valiev, D. Mejia-Rodriguez,
       A. Kunitsa, N. P. Bauman, A. Panyala, W. A. de Jong, T. P. Straatsma,
   H. J. J. van Dam, D. Wang, T. L. Windus, J. Hammond, J. Autschbach, A. Woods,
    K. Bhaskaran-Nair, J. Brabec, K. Lopata, S. A. Fischer, S. Krishnamoorthy,
     M. Jacquelin, W. Ma, M. Klemm, O. Villa, Y. Chen, V. Anisimov, F. Aquino,
     S. Hirata, M. T. Hackler, E. Hermes, L. Jensen, J. E. Moore, J. C. Becca,
      V. Konjkov, T. Risthaus, M. Malagoli, A. Marenich, A. Otero-de-la-Roza,
        J. Mullin, P. Nichols, R. Peverati, J. Pittner, Y. Zhao, P.-D. Fan,
        A. Fonari, M. J. Williamson, R. J. Harrison, J. R. Rehr, M. Dupuis,
     D. Silverstein, D. M. A. Smith, J. Nieplocha, V. Tipparaju, M. Krishnan,
     B. E. Van Kuiken, A. Vazquez-Mayagoitia, M. Swart, Q. Wu, T. Van Voorhis,
     A. A. Auer, M. Nooijen, L. D. Crosby, E. Brown, G. Cisneros, G. I. Fann,
   H. Fruchtl, J. Garza, K. Hirao, R. A. Kendall, J. A. Nichols, K. Tsemekhman,
    K. Wolinski, J. Anchell, D. E. Bernholdt, P. Borowski, T. Clark, D. Clerc,
   H. Dachsel, M. J. O. Deegan, K. Dyall, D. Elwood, E. Glendening, M. Gutowski,
   A. C. Hess, J. Jaffe, B. G. Johnson, J. Ju, R. Kobayashi, R. Kutteh, Z. Lin,
   R. Littlefield, X. Long, B. Meng, T. Nakajima, S. Niu, L. Pollack, M. Rosing,
   K. Glaesemann, G. Sandrone, M. Stave, H. Taylor, G. Thomas, J. H. van Lenthe,
                               A. T. Wong, Z. Zhang.

 Total times  cpu:       36.5s     wall:       36.5s
