 argument  1 = /var/folders/v1/k9l8hql13n1gcrjl_yh_gs5m0000gn/T/tmpo_xsgbgj/input_A_AB.txt
                                         
                                         


             Northwest Computational Chemistry Package (NWChem) 7.2.3
             --------------------------------------------------------


                    Environmental Molecular Sciences Laboratory
                       Pacific Northwest National Laboratory
                                Richland, WA 99352

                              Copyright (c) 1994-2022
                       Pacific Northwest National Laboratory
                            Battelle Memorial Institute

             NWChem is an open-source computational chemistry package
                        distributed under the terms of the
                      Educational Community License (ECL) 2.0
             A copy of the license is included with this distribution
                              in the LICENSE.TXT file

                                  ACKNOWLEDGMENT
                                  --------------

            This software and its documentation were developed at the
            EMSL at Pacific Northwest National Laboratory, a multiprogram
            national laboratory, operated for the U.S. Department of Energy
            by Battelle under Contract Number DE-AC05-76RL01830. Support
            for this work was provided by the Department of Energy Office
            of Biological and Environmental Research, Office of Basic
            Energy Sciences, and the Office of Advanced Scientific Computing.


           Job information
           ---------------

    hostname        = visitor-wireless1-147-155-221-109.ameslab.gov
    program         = nwchem
    date            = Wed Jul  2 16:24:36 2025

    compiled        = Thu_Dec_26_16:03:44_2024
    source          = /private/tmp/nwchem-20241226-24280-orrtsi/nwchem-7.2.3
    nwchem branch   = 7.2.3
    nwchem revision = d690e065
    ga revision     = 5.8.0
    use scalapack   = T
    input           = /var/folders/v1/k9l8hql13n1gcrjl_yh_gs5m0000gn/T/tmpo_xsgbgj/input_A_AB.txt
    prefix          = input_A_AB.
    data base       = ./input_A_AB.db
    status          = restart
    nproc           =        8
    time left       =     -1s



           Memory information
           ------------------

    heap     =  536870908 doubles =   4096.0 Mbytes
    stack    =  536870913 doubles =   4096.0 Mbytes
    global   = 1073741824 doubles =   8192.0 Mbytes (distinct from heap & stack)
    total    = 2147483645 doubles =  16384.0 Mbytes
    verify   = yes
    hardfail = no 


           Directory information
           ---------------------

  0 permanent = .
  0 scratch   = .


           Previous task information
           -------------------------

    Theory    = ccsd(t)                         
    Operation = energy                        
    Status    = ok                            
    Qmmm      = F
    Ignore    = F


           Geometries in the database
           --------------------------

       Name                              Natoms  Last Modified
       --------------------------------  ------  ------------------------
    1  geometry                               6  Wed Jul  2 16:23:32 2025  

  The geometry named "geometry" is the default for restart



           Basis sets in the database
           --------------------------

       Name                              Natoms  Last Modified
        --------------------------------  ------  ------------------------
    1  ao basis                               4  Wed Jul  2 16:23:32 2025  

  The basis set named "ao basis" is the default AO basis for restart




                                NWChem Input Module
                                -------------------



 Scaling coordinates for geometry "geometry" by  1.889725989
 (inverse scale =  0.529177249)

 CS  symmetry detected


                             Geometry "geometry" -> ""
                             -------------------------

 Output coordinates in angstroms (scale by  1.889725989 to convert to a.u.)

  No.       Tag          Charge          X              Y              Z
 ---- ---------------- ---------- -------------- -------------- --------------
    1 O                    8.0000    -0.11775408    -0.01697583     0.00000000
    2 H                    1.0000     0.47101630     0.06790332    -0.76107779
    3 H                    1.0000     0.47101630     0.06790332     0.76107779
    4 bqO                  0.0000    -0.50993026     2.70373299     0.00000000
    5 bqH                  0.0000     0.18304722     2.03079416     0.00000000
    6 bqH                  0.0000    -0.02438794     3.53881004     0.00000000

      Atomic Mass 
      ----------- 

      O                 15.994910
      H                  1.007825


 Effective nuclear repulsion energy (a.u.)       9.1127796529

            Nuclear Dipole moment (a.u.) 
            ----------------------------
        X                 Y               Z
 ---------------- ---------------- ----------------
     0.0000000000     0.0000000000     0.0000000000

      Symmetry information
      --------------------

 Group name             Cs        
 Group number              2
 Group order               2
 No. of unique centers     5

      Symmetry unique atoms

     1    2    4    5    6


            XYZ format geometry
            -------------------
     6
 geometry
 O                    -0.11775408    -0.01697583     0.00000000
 H                     0.47101630     0.06790332    -0.76107779
 H                     0.47101630     0.06790332     0.76107779
 bqO                  -0.50993026     2.70373299     0.00000000
 bqH                   0.18304722     2.03079416     0.00000000
 bqH                  -0.02438794     3.53881004     0.00000000

 ==============================================================================
                                internuclear distances
 ------------------------------------------------------------------------------
       center one      |      center two      | atomic units |  angstroms
 ------------------------------------------------------------------------------
    2 H                |   1 O                |     1.82542  |     0.96597
    3 H                |   1 O                |     1.82542  |     0.96597
    4 bqO              |   1 O                |     5.19453  |     2.74883
    5 bqH              |   1 O                |     3.91125  |     2.06974
    5 bqH              |   2 H                |     4.01544  |     2.12488
    5 bqH              |   3 H                |     4.01544  |     2.12488
    5 bqH              |   4 bqO              |     1.82539  |     0.96595
    6 bqH              |   4 bqO              |     1.82543  |     0.96597
    6 bqH              |   5 bqH              |     2.87657  |     1.52222
 ------------------------------------------------------------------------------
                         number of included internuclear distances:          9
 ==============================================================================



 ==============================================================================
                                 internuclear angles
 ------------------------------------------------------------------------------
        center 1       |       center 2       |       center 3       |  degrees
 ------------------------------------------------------------------------------
    2 H                |   1 O                |   3 H                |   103.98
    2 H                |   1 O                |   4 bqO              |    90.00
    2 H                |   1 O                |   5 bqH              |    79.89
    3 H                |   1 O                |   4 bqO              |    90.00
    3 H                |   1 O                |   5 bqH              |    79.89
    1 O                |   5 bqH              |   4 bqO              |   125.80
    2 H                |   1 O                |   5 bqH              |    79.89
    3 H                |   1 O                |   5 bqH              |    79.89
    4 bqO              |   5 bqH              |   1 O                |   125.80
    1 O                |   4 bqO              |   6 bqH              |   141.62
    5 bqH              |   4 bqO              |   6 bqH              |   103.98
    5 bqH              |   1 O                |   2 H                |    79.89
    5 bqH              |   1 O                |   3 H                |    79.89
    1 O                |   5 bqH              |   4 bqO              |   125.80
    1 O                |   5 bqH              |   6 bqH              |   163.81
    2 H                |   5 bqH              |   3 H                |    41.98
    2 H                |   5 bqH              |   4 bqO              |   137.80
    2 H                |   5 bqH              |   6 bqH              |   159.01
    3 H                |   5 bqH              |   4 bqO              |   137.80
    3 H                |   5 bqH              |   6 bqH              |   159.01
    5 bqH              |   4 bqO              |   6 bqH              |   103.98
    6 bqH              |   4 bqO              |   5 bqH              |   103.98
 ------------------------------------------------------------------------------
                            number of included internuclear angles:         22
 ==============================================================================



  library name resolved from: environment
  library file name is: </opt/homebrew/Caskroom/mambaforge/base/envs/ames/share/nwchem/libraries/>
  
                      Basis "ao basis" -> "" (spherical)
                      -----
  O (Oxygen)
  ----------
            Exponent  Coefficients 
       -------------- ---------------------------------------------------------
  1 S  1.17200000E+04  0.000710
  1 S  1.75900000E+03  0.005470
  1 S  4.00800000E+02  0.027837
  1 S  1.13700000E+02  0.104800
  1 S  3.70300000E+01  0.283062
  1 S  1.32700000E+01  0.448719
  1 S  5.02500000E+00  0.270952
  1 S  1.01300000E+00  0.015458

  2 S  1.17200000E+04 -0.000160
  2 S  1.75900000E+03 -0.001263
  2 S  4.00800000E+02 -0.006267
  2 S  1.13700000E+02 -0.025716
  2 S  3.70300000E+01 -0.070924
  2 S  1.32700000E+01 -0.165411
  2 S  5.02500000E+00 -0.116955
  2 S  1.01300000E+00  0.557368

  3 S  3.02300000E-01  1.000000

  4 S  7.89600000E-02  1.000000

  5 P  1.77000000E+01  0.043018
  5 P  3.85400000E+00  0.228913
  5 P  1.04600000E+00  0.508728

  6 P  2.75300000E-01  1.000000

  7 P  6.85600000E-02  1.000000

  8 D  1.18500000E+00  1.000000

  9 D  3.32000000E-01  1.000000

  H (Hydrogen)
  ------------
            Exponent  Coefficients 
       -------------- ---------------------------------------------------------
  1 S  1.30100000E+01  0.019685
  1 S  1.96200000E+00  0.137977
  1 S  4.44600000E-01  0.478148

  2 S  1.22000000E-01  1.000000

  3 S  2.97400000E-02  1.000000

  4 P  7.27000000E-01  1.000000

  5 P  1.41000000E-01  1.000000

  bqO
  ---
            Exponent  Coefficients 
       -------------- ---------------------------------------------------------
  1 S  1.17200000E+04  0.000710
  1 S  1.75900000E+03  0.005470
  1 S  4.00800000E+02  0.027837
  1 S  1.13700000E+02  0.104800
  1 S  3.70300000E+01  0.283062
  1 S  1.32700000E+01  0.448719
  1 S  5.02500000E+00  0.270952
  1 S  1.01300000E+00  0.015458

  2 S  1.17200000E+04 -0.000160
  2 S  1.75900000E+03 -0.001263
  2 S  4.00800000E+02 -0.006267
  2 S  1.13700000E+02 -0.025716
  2 S  3.70300000E+01 -0.070924
  2 S  1.32700000E+01 -0.165411
  2 S  5.02500000E+00 -0.116955
  2 S  1.01300000E+00  0.557368

  3 S  3.02300000E-01  1.000000

  4 S  7.89600000E-02  1.000000

  5 P  1.77000000E+01  0.043018
  5 P  3.85400000E+00  0.228913
  5 P  1.04600000E+00  0.508728

  6 P  2.75300000E-01  1.000000

  7 P  6.85600000E-02  1.000000

  8 D  1.18500000E+00  1.000000

  9 D  3.32000000E-01  1.000000

  bqH
  ---
            Exponent  Coefficients 
       -------------- ---------------------------------------------------------
  1 S  1.30100000E+01  0.019685
  1 S  1.96200000E+00  0.137977
  1 S  4.44600000E-01  0.478148

  2 S  1.22000000E-01  1.000000

  3 S  2.97400000E-02  1.000000

  4 P  7.27000000E-01  1.000000

  5 P  1.41000000E-01  1.000000



 Summary of "ao basis" -> "" (spherical)
 ------------------------------------------------------------------------------
       Tag                 Description            Shells   Functions and Types
 ---------------- ------------------------------  ------  ---------------------
 O                        aug-cc-pvdz                9       23   4s3p2d
 H                        aug-cc-pvdz                5        9   3s2p
 bqO                      aug-cc-pvdz                9       23   4s3p2d
 bqH                      aug-cc-pvdz                5        9   3s2p


                                 NWChem SCF Module
                                 -----------------



  ao basis        = "ao basis"
  functions       =    82
  atoms           =     6
  closed shells   =     5
  open shells     =     0
  charge          =   0.00
  wavefunction    = RHF 
  input vectors   = ./input_A_AB.movecs
  output vectors  = ./input_A_AB.movecs
  use symmetry    = T
  symmetry adapt  = T


 Summary of "ao basis" -> "ao basis" (spherical)
 ------------------------------------------------------------------------------
       Tag                 Description            Shells   Functions and Types
 ---------------- ------------------------------  ------  ---------------------
 O                        aug-cc-pvdz                9       23   4s3p2d
 H                        aug-cc-pvdz                5        9   3s2p
 bqO                      aug-cc-pvdz                9       23   4s3p2d
 bqH                      aug-cc-pvdz                5        9   3s2p


      Symmetry analysis of basis
      --------------------------

        a'         55
        a"         27


 Forming initial guess at       0.1s


 Loading old vectors from job with title :




      Symmetry analysis of molecular orbitals - initial
      -------------------------------------------------

  Numbering of irreducible representations: 

     1 a'          2 a"      

  Orbital symmetries:

     1 a'          2 a'          3 a"          4 a'          5 a'      
     6 a'          7 a'          8 a"          9 a'         10 a'      
    11 a'         12 a"         13 a'         14 a'         15 a"      


 Starting SCF solution at       0.1s



 ----------------------------------------------
         Quadratically convergent ROHF

 Convergence threshold     :          1.000E-06
 Maximum no. of iterations :           30
 Final Fock-matrix accuracy:          1.000E-08
 ----------------------------------------------


 Integral file          = ./input_A_AB.aoints.0
 Record size in doubles =  65536        No. of integs per rec  =  43688
 Max. records in memory =     17        Max. records in file   =   3875
 No. of bits per label  =      8        No. of bits per value  =     64


 #quartets = 1.829D+05 #integrals = 2.997D+06 #direct =  0.0% #cached =100.0%


File balance: exchanges=    15  moved=     9  time=   0.0


              iter       energy          gnorm     gmax       time
             ----- ------------------- --------- --------- --------
                 1      -76.0392147898  1.50D-01  4.42D-02      0.5
                 2      -76.0409995786  7.05D-03  1.99D-03      0.6
                 3      -76.0410069415  4.25D-05  1.23D-05      0.8
                 4      -76.0410069417  3.64D-08  1.07D-08      1.0


       Final RHF  results 
       ------------------ 

         Total SCF energy =    -76.041006941728
      One-electron energy =   -122.830563002999
      Two-electron energy =     37.676776408383
 Nuclear repulsion energy =      9.112779652888

        Time for solution =      0.9s



       Symmetry analysis of molecular orbitals - final
       -----------------------------------------------

  Numbering of irreducible representations: 

     1 a'          2 a"      

  Orbital symmetries:

     1 a'          2 a'          3 a"          4 a'          5 a'      
     6 a'          7 a'          8 a"          9 a'         10 a'      
    11 a'         12 a"         13 a'         14 a'         15 a"      

             Final eigenvalues
             -----------------

              1      
    1  -20.5791
    2   -1.3524
    3   -0.7134
    4   -0.5849
    5   -0.5088
    6    0.0303
    7    0.0538
    8    0.0577
    9    0.0899
   10    0.1460
   11    0.1675
   12    0.1760
   13    0.1869
   14    0.2136
   15    0.2325

                       ROHF Final Molecular Orbital Analysis
                       -------------------------------------

 Vector    2  Occ=2.000000D+00  E=-1.352401D+00  Symmetry=a'
              MO Center=  4.8D-02,  7.0D-03, -2.0D-17, r^2= 5.0D-01
   Bfn.  Coefficient  Atom+Function         Bfn.  Coefficient  Atom+Function  
  ----- ------------  ---------------      ----- ------------  ---------------
     2      0.448465  1 O  s                  3      0.385849  1 O  s          
    24      0.202626  2 H  s                 33      0.202626  3 H  s          

 Vector    3  Occ=2.000000D+00  E=-7.133576D-01  Symmetry=a"
              MO Center=  9.4D-02,  1.4D-02, -6.3D-17, r^2= 7.7D-01
   Bfn.  Coefficient  Atom+Function         Bfn.  Coefficient  Atom+Function  
  ----- ------------  ---------------      ----- ------------  ---------------
     7      0.498726  1 O  pz                24     -0.347077  2 H  s          
    33      0.347077  3 H  s                 10      0.202380  1 O  pz         

 Vector    4  Occ=2.000000D+00  E=-5.848582D-01  Symmetry=a'
              MO Center= -1.5D-01, -2.2D-02, -4.0D-18, r^2= 7.3D-01
   Bfn.  Coefficient  Atom+Function         Bfn.  Coefficient  Atom+Function  
  ----- ------------  ---------------      ----- ------------  ---------------
     5      0.541801  1 O  px                 8      0.321372  1 O  px         
     3     -0.319444  1 O  s                 24      0.212665  2 H  s          
    33      0.212665  3 H  s                  2     -0.151467  1 O  s          

 Vector    5  Occ=2.000000D+00  E=-5.087958D-01  Symmetry=a'
              MO Center= -7.9D-02, -1.1D-02, -4.1D-18, r^2= 6.8D-01
   Bfn.  Coefficient  Atom+Function         Bfn.  Coefficient  Atom+Function  
  ----- ------------  ---------------      ----- ------------  ---------------
     6      0.621778  1 O  py                 9      0.449651  1 O  py         

 Vector    6  Occ=0.000000D+00  E= 3.031224D-02  Symmetry=a'
              MO Center=  5.7D-01,  1.6D+00, -7.1D-16, r^2= 1.4D+01
   Bfn.  Coefficient  Atom+Function         Bfn.  Coefficient  Atom+Function  
  ----- ------------  ---------------      ----- ------------  ---------------
     4      1.049155  1 O  s                 76     -1.005257  6 bq s          
    45      0.781758  4 bq s                 26     -0.650676  2 H  s          
    35     -0.650676  3 H  s                 67      0.368918  5 bq s          
    75     -0.365304  6 bq s                 25     -0.288205  2 H  s          
    34     -0.288205  3 H  s                  3      0.159008  1 O  s          

 Vector    7  Occ=0.000000D+00  E= 5.375719D-02  Symmetry=a'
              MO Center=  4.5D-01,  2.3D+00, -3.6D-16, r^2= 1.8D+01
   Bfn.  Coefficient  Atom+Function         Bfn.  Coefficient  Atom+Function  
  ----- ------------  ---------------      ----- ------------  ---------------
    76      1.682169  6 bq s                 45     -0.939081  4 bq s          
    26     -0.848620  2 H  s                 35     -0.848620  3 H  s          
     4      0.841852  1 O  s                 75      0.665332  6 bq s          
    53     -0.523749  4 bq py                25     -0.238090  2 H  s          
    34     -0.238090  3 H  s                 12     -0.222343  1 O  py         

 Vector    8  Occ=0.000000D+00  E= 5.773522D-02  Symmetry=a"
              MO Center=  8.3D-01,  8.0D-02,  4.7D-15, r^2= 1.5D+01
   Bfn.  Coefficient  Atom+Function         Bfn.  Coefficient  Atom+Function  
  ----- ------------  ---------------      ----- ------------  ---------------
    26      2.970861  2 H  s                 35     -2.970861  3 H  s          
    13      0.818600  1 O  pz                25      0.603564  2 H  s          
    34     -0.603564  3 H  s                 10      0.150257  1 O  pz         

 Vector    9  Occ=0.000000D+00  E= 8.988293D-02  Symmetry=a'
              MO Center=  6.3D-01,  2.1D+00, -1.0D-15, r^2= 2.0D+01
   Bfn.  Coefficient  Atom+Function         Bfn.  Coefficient  Atom+Function  
  ----- ------------  ---------------      ----- ------------  ---------------
    67      7.057422  5 bq s                 76     -3.948306  6 bq s          
    26     -1.637586  2 H  s                 35     -1.637586  3 H  s          
    45     -1.322589  4 bq s                 66      0.805851  5 bq s          
    53      0.684473  4 bq py                 4      0.523710  1 O  s          
    52     -0.280678  4 bq px                12     -0.276209  1 O  py         

 Vector   10  Occ=0.000000D+00  E= 1.460030D-01  Symmetry=a'
              MO Center= -1.1D+00,  1.6D+00,  7.9D-17, r^2= 8.5D+00
   Bfn.  Coefficient  Atom+Function         Bfn.  Coefficient  Atom+Function  
  ----- ------------  ---------------      ----- ------------  ---------------
     4      2.749167  1 O  s                 66     -1.319354  5 bq s          
    25     -1.267122  2 H  s                 34     -1.267122  3 H  s          
    52      1.199817  4 bq px                11      1.181735  1 O  px         
    67     -1.137919  5 bq s                 45      0.856190  4 bq s          
    76      0.659715  6 bq s                 12      0.552004  1 O  py         

 Vector   11  Occ=0.000000D+00  E= 1.675358D-01  Symmetry=a'
              MO Center= -1.7D-01,  2.8D+00,  3.9D-16, r^2= 9.7D+00
   Bfn.  Coefficient  Atom+Function         Bfn.  Coefficient  Atom+Function  
  ----- ------------  ---------------      ----- ------------  ---------------
    45      3.572060  4 bq s                  4      3.020925  1 O  s          
    75     -1.984229  6 bq s                 67     -1.834311  5 bq s          
    53      1.232150  4 bq py                25     -1.016953  2 H  s          
    34     -1.016953  3 H  s                 11      0.733498  1 O  px         
    12      0.720717  1 O  py                76     -0.596714  6 bq s          

 Vector   12  Occ=0.000000D+00  E= 1.759978D-01  Symmetry=a"
              MO Center= -6.4D-01,  2.4D+00, -1.1D-16, r^2= 8.1D+00
   Bfn.  Coefficient  Atom+Function         Bfn.  Coefficient  Atom+Function  
  ----- ------------  ---------------      ----- ------------  ---------------
    54      1.457727  4 bq pz                26      1.043270  2 H  s          
    35     -1.043270  3 H  s                 73     -0.320933  5 bq pz         
    82     -0.199755  6 bq pz         

 Vector   13  Occ=0.000000D+00  E= 1.869413D-01  Symmetry=a'
              MO Center= -3.1D-01,  1.2D+00, -5.3D-16, r^2= 1.1D+01
   Bfn.  Coefficient  Atom+Function         Bfn.  Coefficient  Atom+Function  
  ----- ------------  ---------------      ----- ------------  ---------------
    45     -3.704801  4 bq s                  4      3.684690  1 O  s          
    11      1.734821  1 O  px                25     -1.626140  2 H  s          
    34     -1.626140  3 H  s                 52     -1.624497  4 bq px         
    67      1.238622  5 bq s                 66      1.178841  5 bq s          
    12      1.107653  1 O  py                75      1.037775  6 bq s          

 Vector   14  Occ=0.000000D+00  E= 2.135930D-01  Symmetry=a'
              MO Center=  3.0D-01,  9.1D-01, -1.9D-16, r^2= 1.2D+01
   Bfn.  Coefficient  Atom+Function         Bfn.  Coefficient  Atom+Function  
  ----- ------------  ---------------      ----- ------------  ---------------
     4      2.105771  1 O  s                 53     -1.993824  4 bq py         
    76      1.774781  6 bq s                 75      1.345371  6 bq s          
    67     -1.156752  5 bq s                 66     -0.970944  5 bq s          
    12     -0.801104  1 O  py                26     -0.766887  2 H  s          
    35     -0.766887  3 H  s                 25     -0.429952  2 H  s          

 Vector   15  Occ=0.000000D+00  E= 2.325342D-01  Symmetry=a"
              MO Center= -1.5D-01, -1.2D-02, -2.0D-15, r^2= 1.0D+01
   Bfn.  Coefficient  Atom+Function         Bfn.  Coefficient  Atom+Function  
  ----- ------------  ---------------      ----- ------------  ---------------
    13      3.075235  1 O  pz                25      2.721934  2 H  s          
    34     -2.721934  3 H  s                 26      2.571392  2 H  s          
    35     -2.571392  3 H  s                 32      0.649213  2 H  pz         
    41      0.649213  3 H  pz                30     -0.581277  2 H  px         
    39      0.581277  3 H  px                10      0.265621  1 O  pz         

 Vector   16  Occ=0.000000D+00  E= 2.723778D-01  Symmetry=a'
              MO Center= -5.0D-01,  8.3D-01, -4.8D-16, r^2= 1.2D+01
   Bfn.  Coefficient  Atom+Function         Bfn.  Coefficient  Atom+Function  
  ----- ------------  ---------------      ----- ------------  ---------------
    67      5.010577  5 bq s                 76     -2.780801  6 bq s          
    66      2.317559  5 bq s                 53      1.993108  4 bq py         
     4      1.775464  1 O  s                 45     -1.485238  4 bq s          
    12     -1.409351  1 O  py                26     -1.351296  2 H  s          
    35     -1.351296  3 H  s                 75     -1.064090  6 bq s          

 Vector   17  Occ=0.000000D+00  E= 2.799772D-01  Symmetry=a'
              MO Center= -2.4D-01,  4.2D-01, -3.8D-16, r^2= 9.5D+00
   Bfn.  Coefficient  Atom+Function         Bfn.  Coefficient  Atom+Function  
  ----- ------------  ---------------      ----- ------------  ---------------
    53      2.132750  4 bq py                12      1.887056  1 O  py         
    11     -1.261660  1 O  px                75     -1.186220  6 bq s          
    66      1.129447  5 bq s                 45     -0.939397  4 bq s          
    67     -0.669734  5 bq s                 25      0.568079  2 H  s          
    34      0.568079  3 H  s                 76     -0.480958  6 bq s          

 Vector   18  Occ=0.000000D+00  E= 2.840222D-01  Symmetry=a"
              MO Center=  3.1D-01,  8.9D-02,  1.4D-16, r^2= 4.6D+00
   Bfn.  Coefficient  Atom+Function         Bfn.  Coefficient  Atom+Function  
  ----- ------------  ---------------      ----- ------------  ---------------
    13      1.020001  1 O  pz                25      0.648215  2 H  s          
    34     -0.648215  3 H  s                 32     -0.583748  2 H  pz         
    41     -0.583748  3 H  pz                30      0.462044  2 H  px         
    39     -0.462044  3 H  px                73     -0.317703  5 bq pz         
    26     -0.284158  2 H  s                 35      0.284158  3 H  s          

 Vector   19  Occ=0.000000D+00  E= 3.416044D-01  Symmetry=a'
              MO Center=  1.8D-01,  5.6D-01,  1.5D-16, r^2= 5.4D+00
   Bfn.  Coefficient  Atom+Function         Bfn.  Coefficient  Atom+Function  
  ----- ------------  ---------------      ----- ------------  ---------------
     4      2.593169  1 O  s                 45     -2.050234  4 bq s          
    66      1.289014  5 bq s                 25     -1.130324  2 H  s          
    34     -1.130324  3 H  s                 12      0.817184  1 O  py         
    67     -0.690088  5 bq s                 30      0.616467  2 H  px         
    39      0.616467  3 H  px                52     -0.563839  4 bq px         

 Vector   20  Occ=0.000000D+00  E= 3.795781D-01  Symmetry=a'
              MO Center=  8.2D-02,  1.9D+00, -2.7D-16, r^2= 7.1D+00
   Bfn.  Coefficient  Atom+Function         Bfn.  Coefficient  Atom+Function  
  ----- ------------  ---------------      ----- ------------  ---------------
    75      2.687580  6 bq s                 66     -2.028063  5 bq s          
     4      1.841128  1 O  s                 53     -1.250448  4 bq py         
    25     -1.162941  2 H  s                 34     -1.162941  3 H  s          
    12      0.785471  1 O  py                72     -0.761560  5 bq py         
    31     -0.645414  2 H  py                40     -0.645414  3 H  py         

 Vector   21  Occ=0.000000D+00  E= 4.032935D-01  Symmetry=a"
              MO Center=  4.1D-01,  7.9D-01, -2.1D-16, r^2= 5.9D+00
   Bfn.  Coefficient  Atom+Function         Bfn.  Coefficient  Atom+Function  
  ----- ------------  ---------------      ----- ------------  ---------------
    25      0.995241  2 H  s                 34     -0.995241  3 H  s          
    31     -0.853819  2 H  py                40      0.853819  3 H  py         
    73      0.539224  5 bq pz                32      0.423190  2 H  pz         
    41      0.423190  3 H  pz                82     -0.422756  6 bq pz         
    54     -0.360127  4 bq pz                26     -0.318034  2 H  s          

 Vector   22  Occ=0.000000D+00  E= 4.258090D-01  Symmetry=a'
              MO Center= -2.3D-01,  2.5D+00,  1.1D-15, r^2= 6.5D+00
   Bfn.  Coefficient  Atom+Function         Bfn.  Coefficient  Atom+Function  
  ----- ------------  ---------------      ----- ------------  ---------------
    45      4.857062  4 bq s                 66     -3.246578  5 bq s          
     4      3.020863  1 O  s                 75     -3.031652  6 bq s          
    52      2.174550  4 bq px                25     -1.343145  2 H  s          
    34     -1.343145  3 H  s                 67     -1.182894  5 bq s          
    53      0.819588  4 bq py                12      0.770280  1 O  py         

 Vector   23  Occ=0.000000D+00  E= 4.552379D-01  Symmetry=a"
              MO Center= -1.0D-01,  3.1D+00,  4.8D-16, r^2= 4.9D+00
   Bfn.  Coefficient  Atom+Function         Bfn.  Coefficient  Atom+Function  
  ----- ------------  ---------------      ----- ------------  ---------------
    82     -1.479261  6 bq pz                54      1.445613  4 bq pz         
    73     -0.879658  5 bq pz                25     -0.593336  2 H  s          
    34      0.593336  3 H  s                 13     -0.423336  1 O  pz         
    51      0.298591  4 bq pz                26      0.175488  2 H  s          
    35     -0.175488  3 H  s          

 Vector   24  Occ=0.000000D+00  E= 4.685257D-01  Symmetry=a'
              MO Center= -1.5D-01,  2.7D+00, -5.2D-16, r^2= 6.4D+00
   Bfn.  Coefficient  Atom+Function         Bfn.  Coefficient  Atom+Function  
  ----- ------------  ---------------      ----- ------------  ---------------
    45      7.017238  4 bq s                 66     -3.591720  5 bq s          
    75     -3.119699  6 bq s                 67     -2.536140  5 bq s          
     4     -2.031278  1 O  s                 80      1.245505  6 bq px         
    25      1.067222  2 H  s                 34      1.067222  3 H  s          
    71      1.061241  5 bq px                44      0.852667  4 bq s          

 Vector   25  Occ=0.000000D+00  E= 4.854348D-01  Symmetry=a'
              MO Center= -8.9D-02,  9.8D-01,  2.6D-15, r^2= 7.7D+00
   Bfn.  Coefficient  Atom+Function         Bfn.  Coefficient  Atom+Function  
  ----- ------------  ---------------      ----- ------------  ---------------
     4      7.834066  1 O  s                 25     -3.573341  2 H  s          
    34     -3.573341  3 H  s                 75     -2.416480  6 bq s          
    11      2.061484  1 O  px                12      1.571276  1 O  py         
    53      1.566503  4 bq py                72      0.913686  5 bq py         
    81      0.890973  6 bq py                 8      0.844150  1 O  px         

 Vector   26  Occ=0.000000D+00  E= 5.078637D-01  Symmetry=a'
              MO Center=  3.8D-03,  2.0D+00, -5.2D-16, r^2= 8.3D+00
   Bfn.  Coefficient  Atom+Function         Bfn.  Coefficient  Atom+Function  
  ----- ------------  ---------------      ----- ------------  ---------------
     4      2.375868  1 O  s                 53      2.225210  4 bq py         
    81     -2.201052  6 bq py                45     -2.137953  4 bq s          
    12      1.927495  1 O  py                72     -1.362859  5 bq py         
    75      1.286368  6 bq s                 31     -1.058600  2 H  py         
    40     -1.058600  3 H  py                25     -1.022810  2 H  s          


 center of mass
 --------------
 x =  -0.09800478 y =  -0.01412870 z =   0.00000000

 moments of inertia (a.u.)
 ------------------
           4.215428566039          -0.319458415082           0.000000000000
          -0.319458415082           6.385320900281           0.000000000000
           0.000000000000           0.000000000000           2.262000764383

  Mulliken analysis of the total density
  --------------------------------------

    Atom       Charge   Shell Charges
 -----------   ------   -------------------------------------------------------
    1 O    8     8.34   2.00  0.84  0.83  0.08  2.81  1.66  0.12  0.01 -0.02
    2 H    1     0.83   0.72  0.01 -0.00  0.08  0.02
    3 H    1     0.83   0.72  0.01 -0.00  0.08  0.02
    4 X    0     0.01  -0.00 -0.00  0.00  0.01 -0.00  0.00  0.00  0.00  0.00
    5 X    0    -0.01   0.00 -0.01 -0.01 -0.00  0.00
    6 X    0    -0.00   0.00 -0.00  0.00  0.00 -0.00

       Multipole analysis of the density wrt the origin
       ------------------------------------------------

     L   x y z        total         open         nuclear
     -   - - -        -----         ----         -------
     0   0 0 0     -0.000000      0.000000     10.000000

     1   1 0 0      0.781201      0.000000      0.000000
     1   0 1 0      0.112946      0.000000      0.000000
     1   0 0 1      0.000000      0.000000      0.000000

     2   2 0 0     -4.665905      0.000000      1.980658
     2   1 1 0      0.136852      0.000000      0.285538
     2   1 0 1      0.000000      0.000000      0.000000
     2   0 2 0     -5.641711      0.000000      0.041164
     2   0 1 1     -0.000000      0.000000      0.000000
     2   0 0 2     -3.177654      0.000000      4.137002


------------------------------------------------------------
EAF file 0: "./input_A_AB.aoints.0" size=2097152 bytes
------------------------------------------------------------
               write      read    awrite     aread      wait
               -----      ----    ------     -----      ----
     calls:        4         1         0         3         3
   data(b): 2.10e+06  5.24e+05  0.00e+00  1.57e+06
   time(s): 0.00e+00  0.00e+00  0.00e+00  0.00e+00  0.00e+00
rate(mb/s): 0.00e+00  0.00e+00
------------------------------------------------------------


 Parallel integral file used      72 records with       0 large values



                   Four-Index Transformation
                   -------------------------
          Number of basis functions:             82
          Number of shells:                      38
          Number of occupied orbitals:            5
          Number of occ. correlated orbitals:     5
          Block length:                          16
          Superscript MO index range:      1 -    5
          Subscript MO index range:        1 -   82
          MO coefficients read from:  ./input_A_AB.movecs      
          Number of operator matrices in core:   30
          Half-transformed integrals produced

     Pass:    1     Index range:    1  -    5     Time:      1.42
 ------------------------------------------
 MP2 Energy (coupled cluster initial guess)
 ------------------------------------------
 Reference energy:            -76.041006941728227
 MP2 Corr. energy:             -0.223152208337531
 Total MP2 energy:            -76.264159150065751


 ****************************************************************************
              the segmented parallel ccsd program:    8 nodes
 ****************************************************************************




 level of theory    ccsd(t)
 number of core         0
 number of occupied     5
 number of virtual     77
 number of deleted      0
 total functions       82
 number of shells      38
 basis label          566



   ***** ccsd parameters *****
   iprt   =     0
   convi  =  0.100E-05
   maxit  =    20
   mxvec  =     5
 memory           1073731948
  Using  1 OpenMP thread(s) in CCSD
  avail0,avail1,avail0-avail1                 16305                16305                    0
  avail0,avail1,avail0-avail1                 16305                16305                    0
  avail0,avail1,avail0-avail1                 16305                16320                  -15
  avail0,avail1,avail0-avail1                 16305                16320                  -15
  Restarting from old vector in ./input_A_AB.t2


-------------------------------------------------------------------------
 iter     correlation     delta       rms       T2     Non-T2      Main
             energy      energy      error      ampl     ampl      Block
                                                time     time      time
-------------------------------------------------------------------------
   1     -0.2251705979 -2.252D-01  2.077D-01     2.46     0.00     2.33
   2     -0.2266988586 -1.528D-03  1.670D-01     0.48     0.00     0.34
   3     -0.2296059614 -2.907D-03  2.817D-02     0.42     0.01     0.31
   4     -0.2302722302 -6.663D-04  1.859D-02     0.42     0.00     0.32
   5     -0.2304911612 -2.189D-04  1.221D-03     0.41     0.00     0.32
   6     -0.2305753255 -8.416D-05  2.808D-04     0.50     0.00     0.36
   7     -0.2305890330 -1.371D-05  1.042D-04     0.48     0.00     0.36
   8     -0.2305893935 -3.605D-07  3.965D-05     0.46     0.00     0.34
   9     -0.2305910395 -1.646D-06  1.620D-05     0.38     0.00     0.28
  10     -0.2305902532  7.863D-07  9.447D-06     0.50     0.00     0.40
  11     -0.2305902028  5.045D-08  9.768D-06     0.50     0.00     0.38
  12     -0.2305901455  5.723D-08  2.810D-06     0.54     0.00     0.36
  13     -0.2305901318  1.373D-08  6.499D-07     0.44     0.00     0.34
                  *************converged*************
-------------------------------------------------------------------------

 -----------
 CCSD Energy
 -----------
 Reference energy:             -76.041006941728227
 CCSD corr. energy:             -0.230590131787257
 Total CCSD energy:            -76.271597073515480


 --------------------------------
 Spin Component Scaled (SCS) CCSD
 --------------------------------
 Same spin contribution:                 -0.050323209952579
 Same spin scaling factor:                1.130000000000000
 Opposite spin contribution:             -0.180266921834678
 Opposite spin scaling fact.:             1.270000000000000
 SCS-CCSD correlation energy:            -0.285804217976456
 Total SCS-CCSD energy:                 -76.326811159704690
 memory           1073731948


*********triples calculation*********

nkpass=    1; nvpass=    1; memdrv=         170401; memtrn=         942207; memavail=     1073731548
 memory available/node                     1073731548
 total number of virtual orbitals        77
 number of virtuals per integral pass    77
 number of integral evaluations           1
 number of occupied per triples pass      5
 number of triples passes                 1

 commencing integral evaluation        1 at          10.83
  symmetry use  T
task         2 out of       741 done   0%  at       0.0 secs
task        38 out of       741 done   5%  at       0.2 secs
task        79 out of       741 done  10%  at       0.3 secs
task       116 out of       741 done  15%  at       0.6 secs
task       179 out of       741 done  24%  at       0.8 secs
task       197 out of       741 done  26%  at       0.8 secs
task       226 out of       741 done  30%  at       0.9 secs
task       281 out of       741 done  37%  at       1.0 secs
task       299 out of       741 done  40%  at       1.0 secs
task       338 out of       741 done  45%  at       1.2 secs
task       378 out of       741 done  51%  at       1.2 secs
task       412 out of       741 done  55%  at       1.3 secs
task       448 out of       741 done  60%  at       1.3 secs
task       482 out of       741 done  65%  at       1.4 secs
task       524 out of       741 done  70%  at       1.4 secs
task       581 out of       741 done  78%  at       1.5 secs
task       602 out of       741 done  81%  at       1.5 secs
task       635 out of       741 done  85%  at       1.5 secs
task       672 out of       741 done  90%  at       1.6 secs
task       709 out of       741 done  95%  at       1.6 secs
 commencing triples evaluation - blocking       1
 ccsd(t): done        1 out of       77 progress:    1.3%
 ccsd(t): done        2 out of       77 progress:    2.6%
 ccsd(t): done        3 out of       77 progress:    3.9%
 ccsd(t): done        4 out of       77 progress:    5.2%
 ccsd(t): done        5 out of       77 progress:    6.5%
 ccsd(t): done        6 out of       77 progress:    7.8%
 ccsd(t): done        7 out of       77 progress:    9.1%
 ccsd(t): done        8 out of       77 progress:   10.4%
 ccsd(t): done        9 out of       77 progress:   11.7%
 ccsd(t): done       10 out of       77 progress:   13.0%
 ccsd(t): done       11 out of       77 progress:   14.3%
 ccsd(t): done       12 out of       77 progress:   15.6%
 ccsd(t): done       13 out of       77 progress:   16.9%
 ccsd(t): done       14 out of       77 progress:   18.2%
 ccsd(t): done       15 out of       77 progress:   19.5%
 ccsd(t): done       16 out of       77 progress:   20.8%
 ccsd(t): done       17 out of       77 progress:   22.1%
 ccsd(t): done       18 out of       77 progress:   23.4%
 ccsd(t): done       19 out of       77 progress:   24.7%
 ccsd(t): done       20 out of       77 progress:   26.0%
 ccsd(t): done       21 out of       77 progress:   27.3%
 ccsd(t): done       22 out of       77 progress:   28.6%
 ccsd(t): done       23 out of       77 progress:   29.9%
 ccsd(t): done       24 out of       77 progress:   31.2%
 ccsd(t): done       25 out of       77 progress:   32.5%
 ccsd(t): done       26 out of       77 progress:   33.8%
 ccsd(t): done       27 out of       77 progress:   35.1%
 ccsd(t): done       28 out of       77 progress:   36.4%
 ccsd(t): done       29 out of       77 progress:   37.7%
 ccsd(t): done       30 out of       77 progress:   39.0%
 ccsd(t): done       31 out of       77 progress:   40.3%
 ccsd(t): done       32 out of       77 progress:   41.6%
 ccsd(t): done       33 out of       77 progress:   42.9%
 ccsd(t): done       34 out of       77 progress:   44.2%
 ccsd(t): done       35 out of       77 progress:   45.5%
 ccsd(t): done       36 out of       77 progress:   46.8%
 ccsd(t): done       37 out of       77 progress:   48.1%
 ccsd(t): done       38 out of       77 progress:   49.4%
 ccsd(t): done       39 out of       77 progress:   50.6%
 ccsd(t): done       40 out of       77 progress:   51.9%
 ccsd(t): done       41 out of       77 progress:   53.2%
 ccsd(t): done       42 out of       77 progress:   54.5%
 ccsd(t): done       43 out of       77 progress:   55.8%
 ccsd(t): done       44 out of       77 progress:   57.1%
 ccsd(t): done       45 out of       77 progress:   58.4%
 ccsd(t): done       46 out of       77 progress:   59.7%
 ccsd(t): done       47 out of       77 progress:   61.0%
 ccsd(t): done       48 out of       77 progress:   62.3%
 ccsd(t): done       49 out of       77 progress:   63.6%
 ccsd(t): done       50 out of       77 progress:   64.9%
 ccsd(t): done       51 out of       77 progress:   66.2%
 ccsd(t): done       52 out of       77 progress:   67.5%
 ccsd(t): done       53 out of       77 progress:   68.8%
 ccsd(t): done       54 out of       77 progress:   70.1%
 ccsd(t): done       55 out of       77 progress:   71.4%
 ccsd(t): done       56 out of       77 progress:   72.7%
 ccsd(t): done       57 out of       77 progress:   74.0%
 ccsd(t): done       58 out of       77 progress:   75.3%
 ccsd(t): done       59 out of       77 progress:   76.6%
 ccsd(t): done       60 out of       77 progress:   77.9%
 ccsd(t): done       61 out of       77 progress:   79.2%
 ccsd(t): done       62 out of       77 progress:   80.5%
 ccsd(t): done       63 out of       77 progress:   81.8%
 ccsd(t): done       64 out of       77 progress:   83.1%
 ccsd(t): done       65 out of       77 progress:   84.4%
 ccsd(t): done       66 out of       77 progress:   85.7%
 ccsd(t): done       67 out of       77 progress:   87.0%
 ccsd(t): done       68 out of       77 progress:   88.3%
 ccsd(t): done       69 out of       77 progress:   89.6%
 ccsd(t): done       70 out of       77 progress:   90.9%
 ccsd(t): done       71 out of       77 progress:   92.2%
 ccsd(t): done       72 out of       77 progress:   93.5%
 ccsd(t): done       73 out of       77 progress:   94.8%
 ccsd(t): done       74 out of       77 progress:   96.1%
 ccsd(t): done       75 out of       77 progress:   97.4%
 ccsd(t): done       76 out of       77 progress:   98.7%
 ccsd(t): done       77 out of       77 progress:  100.0%
 Time for integral evaluation pass     1        1.68
 Time for triples evaluation pass      1        1.37

 pseudo-e(mp4)  -0.58039143499777E-02
 pseudo-e(mp5)   0.40906491752748E-03
        e(t)    -0.53948494324502E-02

 --------------
 CCSD(T) Energy
 --------------
 Reference energy:                     -76.041006941728227

 CCSD corr. energy:                     -0.230590131787257
 T(CCSD) corr. energy:                  -0.005803914349978
 Total CCSD+T(CCSD) energy:            -76.277400987865462

 CCSD corr. energy:                     -0.230590131787257
 (T) corr. energy:                      -0.005394849432450
 Total CCSD(T) energy:                 -76.276991922947929

 routine      calls  cpu(0)   cpu-min  cpu-ave  cpu-max   i/o 
 aoccsd          1     0.02     0.02     0.02     0.02    0.00
 iterdrv         1     0.10     0.10     0.10     0.10    0.00
 pampt          13     0.11     0.11     0.11     0.11    0.00
 t2pm           13     0.23     0.23     0.23     0.23    0.00
 sxy            13     0.51     0.18     0.42     0.54    0.00
 ints        68853     0.65     0.57     0.61     0.65    0.00
 f_write       186     0.04     0.04     0.04     0.05    0.00
 t2eri        1209     0.98     0.92     0.96     0.99    0.00
 idx2         1209     4.13     4.12     4.28     4.59    0.00
 idx34          13     0.02     0.01     0.01     0.02    0.00
 ht2pm          13     0.11     0.10     0.10     0.11    0.00
 itm            13     1.07     1.07     1.07     1.07    0.00
 pdiis          13     0.01     0.01     0.01     0.01    0.00
 r_read       1116     0.11     0.11     0.12     0.15    0.00
 triples         1     0.00     0.00     0.00     0.00    0.00
 rdtrpo          1     0.01     0.01     0.01     0.01    0.00
 trpmos          1     1.68     1.68     1.68     1.68    0.00
 trpdrv          1     0.87     0.80     0.86     0.89    0.00
 dovvv        1410     0.36     0.36     0.38     0.42    0.00
 doooo        1410     0.04     0.04     0.04     0.05    0.00
 tengy        1175     0.10     0.08     0.09     0.10    0.00
 Total                11.14    11.14    11.15    11.15    0.00

 Task  times  cpu:       13.8s     wall:       13.8s


                                NWChem Input Module
                                -------------------


 Summary of allocated global arrays
-----------------------------------
  No active global arrays


MA_summarize_allocated_blocks: starting scan ...
MA_summarize_allocated_blocks: scan completed: 0 heap blocks, 0 stack blocks
MA usage statistics:

	allocation statistics:
					      heap	     stack
					      ----	     -----
	current number of blocks	         0	         0
	maximum number of blocks	        18	        42
	current total bytes		         0	         0
	maximum total bytes		   8936432	7731415912
	maximum total K-bytes		      8937	   7731416
	maximum total M-bytes		         9	      7732


                                     CITATION
                                     --------
                Please cite the following reference when publishing
                           results obtained with NWChem:

          E. Apra, E. J. Bylaska, W. A. de Jong, N. Govind, K. Kowalski,
       T. P. Straatsma, M. Valiev, H. J. J. van Dam, Y. Alexeev, J. Anchell,
       V. Anisimov, F. W. Aquino, R. Atta-Fynn, J. Autschbach, N. P. Bauman,
     J. C. Becca, D. E. Bernholdt, K. Bhaskaran-Nair, S. Bogatko, P. Borowski,
         J. Boschen, J. Brabec, A. Bruner, E. Cauet, Y. Chen, G. N. Chuev,
      C. J. Cramer, J. Daily, M. J. O. Deegan, T. H. Dunning Jr., M. Dupuis,
   K. G. Dyall, G. I. Fann, S. A. Fischer, A. Fonari, H. Fruchtl, L. Gagliardi,
      J. Garza, N. Gawande, S. Ghosh, K. Glaesemann, A. W. Gotz, J. Hammond,
       V. Helms, E. D. Hermes, K. Hirao, S. Hirata, M. Jacquelin, L. Jensen,
   B. G. Johnson, H. Jonsson, R. A. Kendall, M. Klemm, R. Kobayashi, V. Konkov,
      S. Krishnamoorthy, M. Krishnan, Z. Lin, R. D. Lins, R. J. Littlefield,
      A. J. Logsdail, K. Lopata, W. Ma, A. V. Marenich, J. Martin del Campo,
   D. Mejia-Rodriguez, J. E. Moore, J. M. Mullin, T. Nakajima, D. R. Nascimento,
    J. A. Nichols, P. J. Nichols, J. Nieplocha, A. Otero-de-la-Roza, B. Palmer,
    A. Panyala, T. Pirojsirikul, B. Peng, R. Peverati, J. Pittner, L. Pollack,
   R. M. Richard, P. Sadayappan, G. C. Schatz, W. A. Shelton, D. W. Silverstein,
   D. M. A. Smith, T. A. Soares, D. Song, M. Swart, H. L. Taylor, G. S. Thomas,
            V. Tipparaju, D. G. Truhlar, K. Tsemekhman, T. Van Voorhis,
      A. Vazquez-Mayagoitia, P. Verma, O. Villa, A. Vishnu, K. D. Vogiatzis,
        D. Wang, J. H. Weare, M. J. Williamson, T. L. Windus, K. Wolinski,
        A. T. Wong, Q. Wu, C. Yang, Q. Yu, M. Zacharias, Z. Zhang, Y. Zhao,
                                and R. J. Harrison
                        "NWChem: Past, present, and future
                         J. Chem. Phys. 152, 184102 (2020)
                               doi:10.1063/5.0004997

                                      AUTHORS
                                      -------
  E. Apra, E. J. Bylaska, N. Govind, K. Kowalski, M. Valiev, D. Mejia-Rodriguez,
       A. Kunitsa, N. P. Bauman, A. Panyala, W. A. de Jong, T. P. Straatsma,
   H. J. J. van Dam, D. Wang, T. L. Windus, J. Hammond, J. Autschbach, A. Woods,
    K. Bhaskaran-Nair, J. Brabec, K. Lopata, S. A. Fischer, S. Krishnamoorthy,
     M. Jacquelin, W. Ma, M. Klemm, O. Villa, Y. Chen, V. Anisimov, F. Aquino,
     S. Hirata, M. T. Hackler, E. Hermes, L. Jensen, J. E. Moore, J. C. Becca,
      V. Konjkov, T. Risthaus, M. Malagoli, A. Marenich, A. Otero-de-la-Roza,
        J. Mullin, P. Nichols, R. Peverati, J. Pittner, Y. Zhao, P.-D. Fan,
        A. Fonari, M. J. Williamson, R. J. Harrison, J. R. Rehr, M. Dupuis,
     D. Silverstein, D. M. A. Smith, J. Nieplocha, V. Tipparaju, M. Krishnan,
     B. E. Van Kuiken, A. Vazquez-Mayagoitia, M. Swart, Q. Wu, T. Van Voorhis,
     A. A. Auer, M. Nooijen, L. D. Crosby, E. Brown, G. Cisneros, G. I. Fann,
   H. Fruchtl, J. Garza, K. Hirao, R. A. Kendall, J. A. Nichols, K. Tsemekhman,
    K. Wolinski, J. Anchell, D. E. Bernholdt, P. Borowski, T. Clark, D. Clerc,
   H. Dachsel, M. J. O. Deegan, K. Dyall, D. Elwood, E. Glendening, M. Gutowski,
   A. C. Hess, J. Jaffe, B. G. Johnson, J. Ju, R. Kobayashi, R. Kutteh, Z. Lin,
   R. Littlefield, X. Long, B. Meng, T. Nakajima, S. Niu, L. Pollack, M. Rosing,
   K. Glaesemann, G. Sandrone, M. Stave, H. Taylor, G. Thomas, J. H. van Lenthe,
                               A. T. Wong, Z. Zhang.

 Total times  cpu:       13.9s     wall:       13.9s
