 argument  1 = H2O_H2O_distance_1.0_0.5_1.75/input_dimer.txt
                                         
                                         


             Northwest Computational Chemistry Package (NWChem) 7.2.3
             --------------------------------------------------------


                    Environmental Molecular Sciences Laboratory
                       Pacific Northwest National Laboratory
                                Richland, WA 99352

                              Copyright (c) 1994-2022
                       Pacific Northwest National Laboratory
                            Battelle Memorial Institute

             NWChem is an open-source computational chemistry package
                        distributed under the terms of the
                      Educational Community License (ECL) 2.0
             A copy of the license is included with this distribution
                              in the LICENSE.TXT file

                                  ACKNOWLEDGMENT
                                  --------------

            This software and its documentation were developed at the
            EMSL at Pacific Northwest National Laboratory, a multiprogram
            national laboratory, operated for the U.S. Department of Energy
            by Battelle under Contract Number DE-AC05-76RL01830. Support
            for this work was provided by the Department of Energy Office
            of Biological and Environmental Research, Office of Basic
            Energy Sciences, and the Office of Advanced Scientific Computing.


           Job information
           ---------------

    hostname        = ibrahims-air-8.misc.iastate.edu
    program         = nwchem
    date            = Mon Jun  9 16:45:21 2025

    compiled        = Thu_Dec_26_16:03:44_2024
    source          = /private/tmp/nwchem-20241226-24280-orrtsi/nwchem-7.2.3
    nwchem branch   = 7.2.3
    nwchem revision = d690e065
    ga revision     = 5.8.0
    use scalapack   = T
    input           = H2O_H2O_distance_1.0_0.5_1.75/input_dimer.txt
    prefix          = input_dimer.
    data base       = ./input_dimer.db
    status          = restart
    nproc           =        1
    time left       =     -1s



           Memory information
           ------------------

    heap     =   26214396 doubles =    200.0 Mbytes
    stack    =   26214401 doubles =    200.0 Mbytes
    global   =   52428800 doubles =    400.0 Mbytes (distinct from heap & stack)
    total    =  104857597 doubles =    800.0 Mbytes
    verify   = yes
    hardfail = no 


           Directory information
           ---------------------

  0 permanent = .
  0 scratch   = .


           Previous task information
           -------------------------

    Theory    = ccsd(t)                         
    Operation = energy                        
    Status    = ok                            
    Qmmm      = F
    Ignore    = F


           Geometries in the database
           --------------------------

       Name                              Natoms  Last Modified
       --------------------------------  ------  ------------------------
    1  geometry                               6  Mon Jun  9 16:44:31 2025  

  The geometry named "geometry" is the default for restart



           Basis sets in the database
           --------------------------

       Name                              Natoms  Last Modified
        --------------------------------  ------  ------------------------
    1  ao basis                               2  Mon Jun  9 16:44:31 2025  

  The basis set named "ao basis" is the default AO basis for restart




                                NWChem Input Module
                                -------------------



 Scaling coordinates for geometry "geometry" by  1.889725989
 (inverse scale =  0.529177249)

 C1  symmetry detected

          ------
          auto-z
          ------
  autoz: The atoms group into disjoint clusters
 cluster   1:    1    2    3
 cluster   2:    4    5    6
 Connecting clusters   1   2 via atoms    3    4 r = 1.81
  autoz: regenerating connections with new bonds
  no constraints, skipping    0.0000000000000000     
  no constraints, skipping    0.0000000000000000     


                             Geometry "geometry" -> ""
                             -------------------------

 Output coordinates in angstroms (scale by  1.889725989 to convert to a.u.)

  No.       Tag          Charge          X              Y              Z
 ---- ---------------- ---------- -------------- -------------- --------------
    1 O                    8.0000     0.03791395    -1.09647507    -0.08469772
    2 H                    1.0000    -0.82459774    -0.99990220     0.33949157
    3 H                    1.0000     0.63858762    -0.60973678     0.49446736
    4 O                    8.0000     0.01445365     0.97981284    -0.11597315
    5 H                    1.0000    -0.84805804     1.07638570     0.30821614
    6 H                    1.0000     0.61512733     1.46655112     0.46319193

      Atomic Mass 
      ----------- 

      O                 15.994910
      H                  1.007825


 Effective nuclear repulsion energy (a.u.)      43.0800232351

            Nuclear Dipole moment (a.u.) 
            ----------------------------
        X                 Y               Z
 ---------------- ---------------- ----------------
    -0.0000000000    -0.0000000000     0.0000000000



                                Z-matrix (autoz)
                                -------- 

 Units are Angstrom for bonds and degrees for angles

      Type          Name      I     J     K     L     M      Value
      ----------- --------  ----- ----- ----- ----- ----- ----------
    1 Stretch                  1     2                       0.96602
    2 Stretch                  1     3                       0.96600
    3 Stretch                  3     4                       1.81352
    4 Stretch                  4     5                       0.96602
    5 Stretch                  4     6                       0.96600
    6 Bend                     1     3     4                91.48003
    7 Bend                     2     1     3               103.97798
    8 Bend                     3     4     5               104.30583
    9 Bend                     3     4     6                91.48003
   10 Bend                     5     4     6               103.97798
   11 Torsion                  1     3     4     5          75.17007
   12 Torsion                  1     3     4     6         180.00000
   13 Torsion                  2     1     3     4         -74.86144


            XYZ format geometry
            -------------------
     6
 geometry
 O                     0.03791395    -1.09647507    -0.08469772
 H                    -0.82459774    -0.99990220     0.33949157
 H                     0.63858762    -0.60973678     0.49446736
 O                     0.01445365     0.97981284    -0.11597315
 H                    -0.84805804     1.07638570     0.30821614
 H                     0.61512733     1.46655112     0.46319193

 ==============================================================================
                                internuclear distances
 ------------------------------------------------------------------------------
       center one      |      center two      | atomic units |  angstroms
 ------------------------------------------------------------------------------
    2 H                |   1 O                |     1.82551  |     0.96602
    3 H                |   1 O                |     1.82547  |     0.96600
    5 H                |   4 O                |     1.82551  |     0.96602
    6 H                |   4 O                |     1.82547  |     0.96600
 ------------------------------------------------------------------------------
                         number of included internuclear distances:          4
 ==============================================================================



 ==============================================================================
                                 internuclear angles
 ------------------------------------------------------------------------------
        center 1       |       center 2       |       center 3       |  degrees
 ------------------------------------------------------------------------------
    2 H                |   1 O                |   3 H                |   103.98
    5 H                |   4 O                |   6 H                |   103.98
 ------------------------------------------------------------------------------
                            number of included internuclear angles:          2
 ==============================================================================



  library name resolved from: .nwchemrc
  library file name is: </opt/homebrew/Cellar/nwchem/7.2.3_1/share/nwchem/libraries/>
  
                      Basis "ao basis" -> "" (spherical)
                      -----
  O (Oxygen)
  ----------
            Exponent  Coefficients 
       -------------- ---------------------------------------------------------
  1 S  1.17200000E+04  0.000710
  1 S  1.75900000E+03  0.005470
  1 S  4.00800000E+02  0.027837
  1 S  1.13700000E+02  0.104800
  1 S  3.70300000E+01  0.283062
  1 S  1.32700000E+01  0.448719
  1 S  5.02500000E+00  0.270952
  1 S  1.01300000E+00  0.015458

  2 S  1.17200000E+04 -0.000160
  2 S  1.75900000E+03 -0.001263
  2 S  4.00800000E+02 -0.006267
  2 S  1.13700000E+02 -0.025716
  2 S  3.70300000E+01 -0.070924
  2 S  1.32700000E+01 -0.165411
  2 S  5.02500000E+00 -0.116955
  2 S  1.01300000E+00  0.557368

  3 S  3.02300000E-01  1.000000

  4 S  7.89600000E-02  1.000000

  5 P  1.77000000E+01  0.043018
  5 P  3.85400000E+00  0.228913
  5 P  1.04600000E+00  0.508728

  6 P  2.75300000E-01  1.000000

  7 P  6.85600000E-02  1.000000

  8 D  1.18500000E+00  1.000000

  9 D  3.32000000E-01  1.000000

  H (Hydrogen)
  ------------
            Exponent  Coefficients 
       -------------- ---------------------------------------------------------
  1 S  1.30100000E+01  0.019685
  1 S  1.96200000E+00  0.137977
  1 S  4.44600000E-01  0.478148

  2 S  1.22000000E-01  1.000000

  3 S  2.97400000E-02  1.000000

  4 P  7.27000000E-01  1.000000

  5 P  1.41000000E-01  1.000000



 Summary of "ao basis" -> "" (spherical)
 ------------------------------------------------------------------------------
       Tag                 Description            Shells   Functions and Types
 ---------------- ------------------------------  ------  ---------------------
 O                        aug-cc-pvdz                9       23   4s3p2d
 H                        aug-cc-pvdz                5        9   3s2p


                                 NWChem SCF Module
                                 -----------------



  ao basis        = "ao basis"
  functions       =    82
  atoms           =     6
  closed shells   =    10
  open shells     =     0
  charge          =   0.00
  wavefunction    = RHF 
  input vectors   = ./input_dimer.movecs
  output vectors  = ./input_dimer.movecs
  use symmetry    = F
  symmetry adapt  = F


 Summary of "ao basis" -> "ao basis" (spherical)
 ------------------------------------------------------------------------------
       Tag                 Description            Shells   Functions and Types
 ---------------- ------------------------------  ------  ---------------------
 O                        aug-cc-pvdz                9       23   4s3p2d
 H                        aug-cc-pvdz                5        9   3s2p



 Forming initial guess at       0.0s


 Loading old vectors from job with title :




 Starting SCF solution at       0.0s



 ----------------------------------------------
         Quadratically convergent ROHF

 Convergence threshold     :          1.000E-06
 Maximum no. of iterations :           30
 Final Fock-matrix accuracy:          1.000E-08
 ----------------------------------------------


 Integral file          = ./input_dimer.aoints.0
 Record size in doubles =  65536        No. of integs per rec  =  43688
 Max. records in memory =    184        Max. records in file   =   6744
 No. of bits per label  =      8        No. of bits per value  =     64


 #quartets = 2.747D+05 #integrals = 5.965D+06 #direct =  0.0% #cached =100.0%


              iter       energy          gnorm     gmax       time
             ----- ------------------- --------- --------- --------
                 1     -152.0113435378  3.80D-01  7.61D-02      0.4
                 2     -152.0212516214  1.12D-02  2.47D-03      0.5
                 3     -152.0212684337  1.02D-04  2.27D-05      0.7
                 4     -152.0212684352  5.02D-08  9.64D-09      1.0


       Final RHF  results 
       ------------------ 

         Total SCF energy =   -152.021268435205
      One-electron energy =   -295.521651777917
      Two-electron energy =    100.420360107596
 Nuclear repulsion energy =     43.080023235116

        Time for solution =      0.9s


             Final eigenvalues
             -----------------

              1      
    1  -20.5762
    2  -20.5343
    3   -1.3792
    4   -1.3108
    5   -0.7319
    6   -0.6847
    7   -0.6040
    8   -0.5794
    9   -0.5145
   10   -0.4255
   11    0.0268
   12    0.0497
   13    0.0629
   14    0.0831
   15    0.1508
   16    0.1973
   17    0.2011
   18    0.2205
   19    0.2256
   20    0.2553

                       ROHF Final Molecular Orbital Analysis
                       -------------------------------------

 Vector    2  Occ=2.000000D+00  E=-2.053428D+01
              MO Center=  3.8D-02, -1.1D+00, -8.5D-02, r^2= 1.5D-02
   Bfn.  Coefficient  Atom+Function         Bfn.  Coefficient  Atom+Function  
  ----- ------------  ---------------      ----- ------------  ---------------
     1      1.001558  1 O  s          

 Vector    3  Occ=2.000000D+00  E=-1.379191D+00
              MO Center= -1.4D-02,  6.5D-01,  3.6D-02, r^2= 1.1D+00
   Bfn.  Coefficient  Atom+Function         Bfn.  Coefficient  Atom+Function  
  ----- ------------  ---------------      ----- ------------  ---------------
    43      0.397793  4 O  s                 44      0.339598  4 O  s          
     2      0.187732  1 O  s                 65      0.179825  5 H  s          
    74      0.178424  6 H  s                  3      0.153660  1 O  s          

 Vector    4  Occ=2.000000D+00  E=-1.310775D+00
              MO Center= -7.1D-03, -6.0D-01,  5.2D-02, r^2= 1.2D+00
   Bfn.  Coefficient  Atom+Function         Bfn.  Coefficient  Atom+Function  
  ----- ------------  ---------------      ----- ------------  ---------------
     2      0.402263  1 O  s                  3      0.356086  1 O  s          
    43     -0.202327  4 O  s                 24      0.187146  2 H  s          
    33      0.178701  3 H  s                 44     -0.171789  4 O  s          

 Vector    5  Occ=2.000000D+00  E=-7.319142D-01
              MO Center= -3.9D-02,  7.8D-01,  7.5D-02, r^2= 1.3D+00
   Bfn.  Coefficient  Atom+Function         Bfn.  Coefficient  Atom+Function  
  ----- ------------  ---------------      ----- ------------  ---------------
    46      0.442888  4 O  px                65     -0.327110  5 H  s          
    74      0.306813  6 H  s                 49      0.185906  4 O  px         
     5      0.171573  1 O  px         

 Vector    6  Occ=2.000000D+00  E=-6.847160D-01
              MO Center=  4.3D-03, -5.7D-01,  8.3D-02, r^2= 1.5D+00
   Bfn.  Coefficient  Atom+Function         Bfn.  Coefficient  Atom+Function  
  ----- ------------  ---------------      ----- ------------  ---------------
     5      0.401029  1 O  px                33      0.313198  3 H  s          
    24     -0.304852  2 H  s                 47     -0.187775  4 O  py         
     6      0.179432  1 O  py                74     -0.179102  6 H  s          
     8      0.160321  1 O  px         

 Vector    7  Occ=2.000000D+00  E=-6.039951D-01
              MO Center=  1.4D-02,  5.3D-01, -9.0D-02, r^2= 1.4D+00
   Bfn.  Coefficient  Atom+Function         Bfn.  Coefficient  Atom+Function  
  ----- ------------  ---------------      ----- ------------  ---------------
    48      0.340727  4 O  pz                47      0.310923  4 O  py         
    44     -0.264907  4 O  s                 65      0.219975  5 H  s          
    51      0.196382  4 O  pz                50      0.193252  4 O  py         
     5      0.169788  1 O  px                 6     -0.169674  1 O  py         
    46     -0.161709  4 O  px                74      0.159047  6 H  s          

 Vector    8  Occ=2.000000D+00  E=-5.793787D-01
              MO Center=  2.0D-02, -3.0D-01, -1.0D-01, r^2= 1.8D+00
   Bfn.  Coefficient  Atom+Function         Bfn.  Coefficient  Atom+Function  
  ----- ------------  ---------------      ----- ------------  ---------------
    48      0.302058  4 O  pz                 7      0.294064  1 O  pz         
     3     -0.263333  1 O  s                  6      0.244414  1 O  py         
    51      0.204256  4 O  pz                24      0.196055  2 H  s          
    47     -0.188290  4 O  py                10      0.169966  1 O  pz         
     5     -0.154042  1 O  px         

 Vector    9  Occ=2.000000D+00  E=-5.144669D-01
              MO Center=  2.0D-02, -1.4D-01, -1.3D-01, r^2= 1.8D+00
   Bfn.  Coefficient  Atom+Function         Bfn.  Coefficient  Atom+Function  
  ----- ------------  ---------------      ----- ------------  ---------------
     7      0.437496  1 O  pz                48     -0.325139  4 O  pz         
    10      0.282693  1 O  pz                47      0.251538  4 O  py         
    51     -0.225809  4 O  pz                50      0.198216  4 O  py         
     3     -0.170787  1 O  s                 33      0.160169  3 H  s          

 Vector   10  Occ=2.000000D+00  E=-4.255375D-01
              MO Center=  3.1D-02, -4.5D-01, -4.2D-02, r^2= 1.7D+00
   Bfn.  Coefficient  Atom+Function         Bfn.  Coefficient  Atom+Function  
  ----- ------------  ---------------      ----- ------------  ---------------
     6      0.512084  1 O  py                 9      0.383552  1 O  py         
    47      0.365510  4 O  py                50      0.292835  4 O  py         
     7     -0.176447  1 O  pz         

 Vector   11  Occ=0.000000D+00  E= 2.679512D-02
              MO Center= -3.3D-01,  1.2D+00,  8.3D-01, r^2= 1.1D+01
   Bfn.  Coefficient  Atom+Function         Bfn.  Coefficient  Atom+Function  
  ----- ------------  ---------------      ----- ------------  ---------------
    76      0.951890  6 H  s                 45     -0.898303  4 O  s          
     4     -0.832681  1 O  s                 67      0.599642  5 H  s          
    26      0.429404  2 H  s                 75      0.338635  6 H  s          
    53     -0.313392  4 O  py                25      0.253563  2 H  s          
    35     -0.193784  3 H  s                 66      0.178177  5 H  s          

 Vector   12  Occ=0.000000D+00  E= 4.966057D-02
              MO Center= -1.5D-01,  8.5D-01,  7.5D-01, r^2= 1.6D+01
   Bfn.  Coefficient  Atom+Function         Bfn.  Coefficient  Atom+Function  
  ----- ------------  ---------------      ----- ------------  ---------------
    76     -2.250415  6 H  s                 67      2.056215  5 H  s          
    26      1.129941  2 H  s                 35     -0.952494  3 H  s          
    52      0.653430  4 O  px                75     -0.472313  6 H  s          
    66      0.420672  5 H  s                 11      0.356663  1 O  px         
    34     -0.352107  3 H  s                 25      0.325535  2 H  s          

 Vector   13  Occ=0.000000D+00  E= 6.288414D-02
              MO Center= -1.7D-01, -5.6D-01,  7.8D-01, r^2= 1.7D+01
   Bfn.  Coefficient  Atom+Function         Bfn.  Coefficient  Atom+Function  
  ----- ------------  ---------------      ----- ------------  ---------------
    67      1.900107  5 H  s                 35     -1.633296  3 H  s          
    26     -1.364065  2 H  s                  4      1.080957  1 O  s          
    76      0.515482  6 H  s                 53     -0.498835  4 O  py         
    45     -0.487997  4 O  s                 34     -0.368197  3 H  s          
    66      0.344860  5 H  s                 12     -0.329276  1 O  py         

 Vector   14  Occ=0.000000D+00  E= 8.311426D-02
              MO Center= -2.3D-02, -1.7D-01,  7.2D-01, r^2= 2.1D+01
   Bfn.  Coefficient  Atom+Function         Bfn.  Coefficient  Atom+Function  
  ----- ------------  ---------------      ----- ------------  ---------------
    35     -4.715144  3 H  s                 26      4.549404  2 H  s          
    76      3.940184  6 H  s                 67     -3.787706  5 H  s          
    11      0.931808  1 O  px                25      0.669838  2 H  s          
    34     -0.655346  3 H  s                 52     -0.544815  4 O  px         
    66     -0.396954  5 H  s                 75      0.307234  6 H  s          

 Vector   15  Occ=0.000000D+00  E= 1.508249D-01
              MO Center=  5.4D-03,  7.4D-01, -2.5D-01, r^2= 9.8D+00
   Bfn.  Coefficient  Atom+Function         Bfn.  Coefficient  Atom+Function  
  ----- ------------  ---------------      ----- ------------  ---------------
    45      4.658432  4 O  s                 66     -2.016202  5 H  s          
    54      1.982704  4 O  pz                75     -1.805557  6 H  s          
     4      1.650683  1 O  s                 34     -1.548762  3 H  s          
    25     -0.988026  2 H  s                 67     -0.782182  5 H  s          
    35     -0.588097  3 H  s                 13      0.536061  1 O  pz         

 Vector   16  Occ=0.000000D+00  E= 1.973245D-01
              MO Center=  4.8D-02, -2.2D-01, -1.0D-01, r^2= 1.1D+01
   Bfn.  Coefficient  Atom+Function         Bfn.  Coefficient  Atom+Function  
  ----- ------------  ---------------      ----- ------------  ---------------
     4      6.725674  1 O  s                 45     -4.508420  4 O  s          
    12      2.241338  1 O  py                25     -2.224999  2 H  s          
    53      2.122102  4 O  py                13      1.790159  1 O  pz         
    66      1.771565  5 H  s                 54     -1.640584  4 O  pz         
    34     -1.490592  3 H  s                 75      0.675398  6 H  s          

 Vector   17  Occ=0.000000D+00  E= 2.010735D-01
              MO Center=  6.0D-02,  3.3D-01,  3.2D-01, r^2= 1.0D+01
   Bfn.  Coefficient  Atom+Function         Bfn.  Coefficient  Atom+Function  
  ----- ------------  ---------------      ----- ------------  ---------------
    45      3.495157  4 O  s                  4     -1.253633  1 O  s          
    13     -1.233057  1 O  pz                75     -1.097463  6 H  s          
    76     -1.009159  6 H  s                 25      0.917366  2 H  s          
    34      0.748391  3 H  s                 12     -0.585678  1 O  py         
    53      0.550810  4 O  py                67     -0.519710  5 H  s          

 Vector   18  Occ=0.000000D+00  E= 2.204683D-01
              MO Center= -3.2D-01,  5.3D-01,  1.6D-01, r^2= 1.1D+01
   Bfn.  Coefficient  Atom+Function         Bfn.  Coefficient  Atom+Function  
  ----- ------------  ---------------      ----- ------------  ---------------
    52      2.201911  4 O  px                75     -2.071002  6 H  s          
    76     -2.081114  6 H  s                 66      1.841276  5 H  s          
    67      1.824296  5 H  s                 34     -1.526651  3 H  s          
    26      1.241705  2 H  s                 25      1.220822  2 H  s          
    11      0.980985  1 O  px                53      0.970228  4 O  py         

 Vector   19  Occ=0.000000D+00  E= 2.256067D-01
              MO Center=  2.7D-02,  7.7D-01, -1.6D-01, r^2= 9.6D+00
   Bfn.  Coefficient  Atom+Function         Bfn.  Coefficient  Atom+Function  
  ----- ------------  ---------------      ----- ------------  ---------------
    53      1.893284  4 O  py                45      1.522407  4 O  s          
    66     -1.442634  5 H  s                 67     -1.300626  5 H  s          
    52     -1.186212  4 O  px                35      0.741030  3 H  s          
    26      0.617032  2 H  s                 75     -0.562036  6 H  s          
    34      0.463832  3 H  s                  4      0.328978  1 O  s          

 Vector   20  Occ=0.000000D+00  E= 2.553027D-01
              MO Center=  3.8D-01, -8.2D-01, -8.0D-02, r^2= 8.5D+00
   Bfn.  Coefficient  Atom+Function         Bfn.  Coefficient  Atom+Function  
  ----- ------------  ---------------      ----- ------------  ---------------
    35      2.604557  3 H  s                 11     -2.014078  1 O  px         
    25     -1.730928  2 H  s                 34      1.589598  3 H  s          
    76     -1.499881  6 H  s                 12      1.110008  1 O  py         
    45     -1.081730  4 O  s                 26     -1.061586  2 H  s          
    53      0.825174  4 O  py                67      0.425964  5 H  s          

 Vector   21  Occ=0.000000D+00  E= 2.580684D-01
              MO Center= -4.7D-01, -1.1D+00,  2.5D-01, r^2= 8.9D+00
   Bfn.  Coefficient  Atom+Function         Bfn.  Coefficient  Atom+Function  
  ----- ------------  ---------------      ----- ------------  ---------------
    26      2.272823  2 H  s                 67     -2.087118  5 H  s          
    12      1.612820  1 O  py                25      1.584826  2 H  s          
     4     -1.540391  1 O  s                 11      1.183437  1 O  px         
    76      0.719574  6 H  s                 45     -0.696284  4 O  s          
    34     -0.647822  3 H  s                 53      0.644447  4 O  py         

 Vector   22  Occ=0.000000D+00  E= 2.784940D-01
              MO Center=  2.1D-01, -1.4D-01,  7.0D-02, r^2= 9.9D+00
   Bfn.  Coefficient  Atom+Function         Bfn.  Coefficient  Atom+Function  
  ----- ------------  ---------------      ----- ------------  ---------------
    35     -3.214095  3 H  s                 26      2.978130  2 H  s          
    76      2.614100  6 H  s                 67     -2.495390  5 H  s          
    52     -2.298699  4 O  px                11      2.231801  1 O  px         
    34     -1.968289  3 H  s                 66     -1.710070  5 H  s          
    25      1.682641  2 H  s                 75      1.647734  6 H  s          

 Vector   23  Occ=0.000000D+00  E= 3.017287D-01
              MO Center= -4.4D-02,  2.6D-01,  2.1D-02, r^2= 7.5D+00
   Bfn.  Coefficient  Atom+Function         Bfn.  Coefficient  Atom+Function  
  ----- ------------  ---------------      ----- ------------  ---------------
     4      3.413447  1 O  s                 53      2.050530  4 O  py         
    12      1.859503  1 O  py                75     -1.212350  6 H  s          
    13     -0.835620  1 O  pz                34     -0.765595  3 H  s          
    54      0.757706  4 O  pz                25     -0.724537  2 H  s          
    45     -0.602296  4 O  s                 66     -0.570978  5 H  s          

 Vector   24  Occ=0.000000D+00  E= 3.199927D-01
              MO Center= -5.6D-02,  6.2D-02, -1.2D-01, r^2= 6.9D+00
   Bfn.  Coefficient  Atom+Function         Bfn.  Coefficient  Atom+Function  
  ----- ------------  ---------------      ----- ------------  ---------------
    45      3.713935  4 O  s                 53     -1.703588  4 O  py         
    12     -1.350285  1 O  py                 4     -1.331549  1 O  s          
    75     -1.060268  6 H  s                 11     -0.817208  1 O  px         
    52      0.666193  4 O  px                73      0.651173  5 H  pz         
    25     -0.640963  2 H  s                 66     -0.590067  5 H  s          

 Vector   25  Occ=0.000000D+00  E= 3.275405D-01
              MO Center=  1.7D-01,  3.0D-01,  1.0D-01, r^2= 6.1D+00
   Bfn.  Coefficient  Atom+Function         Bfn.  Coefficient  Atom+Function  
  ----- ------------  ---------------      ----- ------------  ---------------
    34      1.398017  3 H  s                 53      1.254906  4 O  py         
    11     -1.086712  1 O  px                75     -1.059131  6 H  s          
    52      0.829990  4 O  px                66      0.791444  5 H  s          
    54      0.610558  4 O  pz                35      0.602207  3 H  s          
    45     -0.602892  4 O  s                 81     -0.569907  6 H  py         

 Vector   26  Occ=0.000000D+00  E= 4.040424D-01
              MO Center= -1.3D-01, -1.3D-02,  1.5D-01, r^2= 6.1D+00
   Bfn.  Coefficient  Atom+Function         Bfn.  Coefficient  Atom+Function  
  ----- ------------  ---------------      ----- ------------  ---------------
     4      4.503399  1 O  s                 45     -4.402490  4 O  s          
    25     -1.974835  2 H  s                 75      1.737392  6 H  s          
    12      1.068199  1 O  py                34     -1.051986  3 H  s          
    66      1.052832  5 H  s                 53      1.001605  4 O  py         
    82     -0.815130  6 H  pz                41      0.756660  3 H  pz         

 Vector   27  Occ=0.000000D+00  E= 4.225432D-01
              MO Center= -1.4D-01, -3.8D-02, -6.4D-03, r^2= 6.3D+00
   Bfn.  Coefficient  Atom+Function         Bfn.  Coefficient  Atom+Function  
  ----- ------------  ---------------      ----- ------------  ---------------
     4      5.776009  1 O  s                 45     -3.136368  4 O  s          
    34     -2.672612  3 H  s                 25     -2.216130  2 H  s          
    12      1.689681  1 O  py                13      1.061830  1 O  pz         
    66      1.058497  5 H  s                 72      0.850049  5 H  py         
    75      0.814534  6 H  s                 81      0.583414  6 H  py         

 Vector   28  Occ=0.000000D+00  E= 4.367401D-01
              MO Center= -3.1D-01, -1.6D-02,  3.6D-01, r^2= 5.9D+00
   Bfn.  Coefficient  Atom+Function         Bfn.  Coefficient  Atom+Function  
  ----- ------------  ---------------      ----- ------------  ---------------
    45     -2.107910  4 O  s                  4      1.987329  1 O  s          
    66      1.396167  5 H  s                 32      1.113366  2 H  pz         
    80      1.069544  6 H  px                34     -0.789824  3 H  s          
    40      0.767224  3 H  py                12      0.754707  1 O  py         
    53      0.668742  4 O  py                73     -0.582634  5 H  pz         

 Vector   29  Occ=0.000000D+00  E= 4.859695D-01
              MO Center= -2.0D-02,  9.4D-01,  2.9D-02, r^2= 6.1D+00
   Bfn.  Coefficient  Atom+Function         Bfn.  Coefficient  Atom+Function  
  ----- ------------  ---------------      ----- ------------  ---------------
    45      9.851561  4 O  s                 66     -4.573256  5 H  s          
    75     -4.228575  6 H  s                 54      2.877405  4 O  pz         
    34     -2.734322  3 H  s                 51      0.898113  4 O  pz         
    25     -0.880017  2 H  s                  4      0.738212  1 O  s          
    40     -0.566981  3 H  py                73     -0.544291  5 H  pz         

 Vector   30  Occ=0.000000D+00  E= 5.160750D-01
              MO Center=  7.7D-02,  5.7D-01,  2.7D-01, r^2= 6.1D+00
   Bfn.  Coefficient  Atom+Function         Bfn.  Coefficient  Atom+Function  
  ----- ------------  ---------------      ----- ------------  ---------------
    52      2.369842  4 O  px                45     -2.326290  4 O  s          
     4      2.229470  1 O  s                 39     -1.637122  3 H  px         
    25     -1.326476  2 H  s                 71     -1.289714  5 H  px         
    80     -1.283989  6 H  px                73     -1.180698  5 H  pz         
    30     -1.086093  2 H  px                53      1.026427  4 O  py         


 center of mass
 --------------
 x =   0.02179235 y =  -0.04854803 z =  -0.08350753

 moments of inertia (a.u.)
 ------------------
         143.605085535257           0.000000000000          -0.000000000000
           0.000000000000          11.277586041878           0.000000000000
          -0.000000000000           0.000000000000         148.211473728771

  Mulliken analysis of the total density
  --------------------------------------

    Atom       Charge   Shell Charges
 -----------   ------   -------------------------------------------------------
    1 O    8     8.34   2.00  0.84  0.83  0.09  2.83  1.64  0.12  0.01 -0.02
    2 H    1     0.85   0.73  0.01 -0.00  0.08  0.03
    3 H    1     0.80   0.72 -0.01 -0.00  0.08  0.02
    4 O    8     8.32   2.00  0.85  0.81  0.06  2.82  1.65  0.12  0.01 -0.02
    5 H    1     0.84   0.72  0.02 -0.00  0.08  0.02
    6 H    1     0.85   0.73  0.02 -0.00  0.08  0.02

       Multipole analysis of the density wrt the origin
       ------------------------------------------------

     L   x y z        total         open         nuclear
     -   - - -        -----         ----         -------
     0   0 0 0     -0.000000      0.000000     20.000000

     1   1 0 0     -0.308704      0.000000     -0.000000
     1   0 1 0      0.865880      0.000000     -0.000000
     1   0 0 1      1.198413      0.000000      0.000000

     2   2 0 0     -6.712382      0.000000      7.851023
     2   1 1 0      0.896538      0.000000      0.732590
     2   1 0 1      0.119222      0.000000      0.072328
     2   0 2 0    -11.552436      0.000000     78.489451
     2   0 1 1      0.907657      0.000000      0.728484
     2   0 0 2     -9.828309      0.000000      2.979283


 Parallel integral file used     137 records with       0 large values



                   Four-Index Transformation
                   -------------------------
          Number of basis functions:             82
          Number of shells:                      38
          Number of occupied orbitals:           10
          Number of occ. correlated orbitals:    10
          Block length:                          16
          Superscript MO index range:      1 -   10
          Subscript MO index range:        1 -   82
          MO coefficients read from:  ./input_dimer.movecs     
          Number of operator matrices in core:  110
          Half-transformed integrals produced

     Pass:    1     Index range:    1  -   10     Time:      1.12
 ------------------------------------------
 MP2 Energy (coupled cluster initial guess)
 ------------------------------------------
 Reference energy:           -152.021268435205172
 MP2 Corr. energy:             -0.452573254844804
 Total MP2 energy:           -152.473841690049966


 ****************************************************************************
              the segmented parallel ccsd program:    1 nodes
 ****************************************************************************




 level of theory    ccsd(t)
 number of core         0
 number of occupied    10
 number of virtual     72
 number of deleted      0
 total functions       82
 number of shells      38
 basis label          566



   ***** ccsd parameters *****
   iprt   =     0
   convi  =  0.100E-05
   maxit  =    20
   mxvec  =     5
 memory             52411036
  Using  1 OpenMP thread(s) in CCSD
  avail0,avail1,avail0-avail1                  3534                 3534                    0
  avail0,avail1,avail0-avail1                  3534                 3534                    0
  avail0,avail1,avail0-avail1                  3534                 3536                   -2
  avail0,avail1,avail0-avail1                  3534                 3538                   -4
  Restarting from old vector in ./input_dimer.t2


-------------------------------------------------------------------------
 iter     correlation     delta       rms       T2     Non-T2      Main
             energy      energy      error      ampl     ampl      Block
                                                time     time      time
-------------------------------------------------------------------------
   1     -0.4605164393 -4.605D-01  1.419D-01     3.04     0.00     2.89
   2     -0.4606882117 -1.718D-04  1.459D-01     0.77     0.00     0.62
   3     -0.4653675374 -4.679D-03  1.654D-02     0.76     0.00     0.61
   4     -0.4663785290 -1.011D-03  1.086D-02     0.76     0.00     0.61
   5     -0.4668393739 -4.608D-04  2.894D-03     0.76     0.00     0.61
   6     -0.4670315980 -1.922D-04  1.367D-03     0.76     0.00     0.61
   7     -0.4670348464 -3.248D-06  6.852D-04     0.77     0.00     0.62
   8     -0.4670302840  4.562D-06  3.719D-04     0.78     0.00     0.63
   9     -0.4670290577  1.226D-06  1.242D-04     0.76     0.00     0.61
  10     -0.4670285065  5.513D-07  3.961D-05     0.76     0.00     0.61
  11     -0.4670294030 -8.965D-07  1.368D-05     0.76     0.00     0.61
  12     -0.4670298932 -4.902D-07  7.555D-06     0.76     0.00     0.61
  13     -0.4670301298 -2.365D-07  4.020D-06     0.76     0.00     0.61
  14     -0.4670302129 -8.312D-08  1.679D-06     0.76     0.00     0.61
  15     -0.4670302093  3.600D-09  4.930D-07     0.76     0.00     0.61
                  *************converged*************
-------------------------------------------------------------------------

 -----------
 CCSD Energy
 -----------
 Reference energy:            -152.021268435205172
 CCSD corr. energy:             -0.467030209299443
 Total CCSD energy:           -152.488298644504624


 --------------------------------
 Spin Component Scaled (SCS) CCSD
 --------------------------------
 Same spin contribution:                 -0.104119291438153
 Same spin scaling factor:                1.130000000000000
 Opposite spin contribution:             -0.362910917861290
 Opposite spin scaling fact.:             1.270000000000000
 SCS-CCSD correlation energy:            -0.578551665008951
 Total SCS-CCSD energy:                -152.599820100214146
 memory             52411036


*********triples calculation*********

nkpass=    1; nvpass=    1; memdrv=         271656; memtrn=         680678; memavail=       52410300
 memory available/node                       52410300
 total number of virtual orbitals        72
 number of virtuals per integral pass    72
 number of integral evaluations           1
 number of occupied per triples pass     10
 number of triples passes                 1

 commencing integral evaluation        1 at          15.90
  symmetry use  F
task         2 out of       741 done   0%  at       0.0 secs
task        38 out of       741 done   5%  at       0.3 secs
task        75 out of       741 done  10%  at       0.4 secs
task       112 out of       741 done  15%  at       0.6 secs
task       149 out of       741 done  20%  at       0.8 secs
task       186 out of       741 done  25%  at       0.9 secs
task       223 out of       741 done  30%  at       1.0 secs
task       260 out of       741 done  35%  at       1.1 secs
task       297 out of       741 done  40%  at       1.3 secs
task       334 out of       741 done  45%  at       1.4 secs
task       371 out of       741 done  50%  at       1.5 secs
task       408 out of       741 done  55%  at       1.6 secs
task       445 out of       741 done  60%  at       1.7 secs
task       482 out of       741 done  65%  at       1.8 secs
task       519 out of       741 done  70%  at       1.9 secs
task       556 out of       741 done  75%  at       1.9 secs
task       593 out of       741 done  80%  at       2.0 secs
task       630 out of       741 done  85%  at       2.1 secs
task       667 out of       741 done  90%  at       2.2 secs
task       704 out of       741 done  95%  at       2.2 secs
task       741 out of       741 done 100%  at       2.3 secs
 commencing triples evaluation - blocking       1
 ccsd(t): done        1 out of       72 progress:    1.4%
 ccsd(t): done        2 out of       72 progress:    2.8%
 ccsd(t): done        3 out of       72 progress:    4.2%
 ccsd(t): done        4 out of       72 progress:    5.6%
 ccsd(t): done        5 out of       72 progress:    6.9%
 ccsd(t): done        6 out of       72 progress:    8.3%
 ccsd(t): done        7 out of       72 progress:    9.7%
 ccsd(t): done        8 out of       72 progress:   11.1%
 ccsd(t): done        9 out of       72 progress:   12.5%
 ccsd(t): done       10 out of       72 progress:   13.9%
 ccsd(t): done       11 out of       72 progress:   15.3%
 ccsd(t): done       12 out of       72 progress:   16.7%
 ccsd(t): done       13 out of       72 progress:   18.1%
 ccsd(t): done       14 out of       72 progress:   19.4%
 ccsd(t): done       15 out of       72 progress:   20.8%
 ccsd(t): done       16 out of       72 progress:   22.2%
 ccsd(t): done       17 out of       72 progress:   23.6%
 ccsd(t): done       18 out of       72 progress:   25.0%
 ccsd(t): done       19 out of       72 progress:   26.4%
 ccsd(t): done       20 out of       72 progress:   27.8%
 ccsd(t): done       21 out of       72 progress:   29.2%
 ccsd(t): done       22 out of       72 progress:   30.6%
 ccsd(t): done       23 out of       72 progress:   31.9%
 ccsd(t): done       24 out of       72 progress:   33.3%
 ccsd(t): done       25 out of       72 progress:   34.7%
 ccsd(t): done       26 out of       72 progress:   36.1%
 ccsd(t): done       27 out of       72 progress:   37.5%
 ccsd(t): done       28 out of       72 progress:   38.9%
 ccsd(t): done       29 out of       72 progress:   40.3%
 ccsd(t): done       30 out of       72 progress:   41.7%
 ccsd(t): done       31 out of       72 progress:   43.1%
 ccsd(t): done       32 out of       72 progress:   44.4%
 ccsd(t): done       33 out of       72 progress:   45.8%
 ccsd(t): done       34 out of       72 progress:   47.2%
 ccsd(t): done       35 out of       72 progress:   48.6%
 ccsd(t): done       36 out of       72 progress:   50.0%
 ccsd(t): done       37 out of       72 progress:   51.4%
 ccsd(t): done       38 out of       72 progress:   52.8%
 ccsd(t): done       39 out of       72 progress:   54.2%
 ccsd(t): done       40 out of       72 progress:   55.6%
 ccsd(t): done       41 out of       72 progress:   56.9%
 ccsd(t): done       42 out of       72 progress:   58.3%
 ccsd(t): done       43 out of       72 progress:   59.7%
 ccsd(t): done       44 out of       72 progress:   61.1%
 ccsd(t): done       45 out of       72 progress:   62.5%
 ccsd(t): done       46 out of       72 progress:   63.9%
 ccsd(t): done       47 out of       72 progress:   65.3%
 ccsd(t): done       48 out of       72 progress:   66.7%
 ccsd(t): done       49 out of       72 progress:   68.1%
 ccsd(t): done       50 out of       72 progress:   69.4%
 ccsd(t): done       51 out of       72 progress:   70.8%
 ccsd(t): done       52 out of       72 progress:   72.2%
 ccsd(t): done       53 out of       72 progress:   73.6%
 ccsd(t): done       54 out of       72 progress:   75.0%
 ccsd(t): done       55 out of       72 progress:   76.4%
 ccsd(t): done       56 out of       72 progress:   77.8%
 ccsd(t): done       57 out of       72 progress:   79.2%
 ccsd(t): done       58 out of       72 progress:   80.6%
 ccsd(t): done       59 out of       72 progress:   81.9%
 ccsd(t): done       60 out of       72 progress:   83.3%
 ccsd(t): done       61 out of       72 progress:   84.7%
 ccsd(t): done       62 out of       72 progress:   86.1%
 ccsd(t): done       63 out of       72 progress:   87.5%
 ccsd(t): done       64 out of       72 progress:   88.9%
 ccsd(t): done       65 out of       72 progress:   90.3%
 ccsd(t): done       66 out of       72 progress:   91.7%
 ccsd(t): done       67 out of       72 progress:   93.1%
 ccsd(t): done       68 out of       72 progress:   94.4%
 ccsd(t): done       69 out of       72 progress:   95.8%
 ccsd(t): done       70 out of       72 progress:   97.2%
 ccsd(t): done       71 out of       72 progress:   98.6%
 ccsd(t): done       72 out of       72 progress:  100.0%
 Time for integral evaluation pass     1        2.36
 Time for triples evaluation pass      1        8.36

 pseudo-e(mp4)  -0.12838310743300E-01
 pseudo-e(mp5)   0.10101623128405E-02
        e(t)    -0.11828148430459E-01

 --------------
 CCSD(T) Energy
 --------------
 Reference energy:                    -152.021268435205172

 CCSD corr. energy:                     -0.467030209299443
 T(CCSD) corr. energy:                  -0.012838310743300
 Total CCSD+T(CCSD) energy:           -152.501136955247915

 CCSD corr. energy:                     -0.467030209299443
 (T) corr. energy:                      -0.011828148430459
 Total CCSD(T) energy:                -152.500126792935077

 routine      calls  cpu(0)   cpu-min  cpu-ave  cpu-max   i/o 
 aoccsd          1     0.01     0.01     0.01     0.01    0.00
 iterdrv         1     0.05     0.05     0.05     0.05    0.00
 pampt          15     0.08     0.08     0.08     0.08    0.00
 t2pm           15     0.14     0.14     0.14     0.14    0.00
 sxy            15     0.09     0.09     0.09     0.09    0.00
 ints       549077     1.75     1.75     1.75     1.75    0.00
 f_write      1482     0.45     0.45     0.45     0.45    0.00
 t2eri       11115     7.61     7.61     7.61     7.61    0.00
 idx2        11115     1.15     1.15     1.15     1.15    0.00
 idx34          15     0.16     0.16     0.16     0.16    0.00
 ht2pm          15     0.17     0.17     0.17     0.17    0.00
 itm            15     1.82     1.82     1.82     1.82    0.00
 pdiis          15     0.02     0.02     0.02     0.02    0.00
 r_read      10374     0.22     0.22     0.22     0.22    0.00
 triples         1     0.00     0.00     0.00     0.00    0.00
 rdtrpo          1     0.01     0.01     0.01     0.01    0.00
 trpmos          1     2.36     2.36     2.36     2.36    0.00
 trpdrv          1     0.59     0.59     0.59     0.59    0.00
 dovvv       79200     5.39     5.39     5.39     5.39    0.00
 doooo       79200     0.92     0.92     0.92     0.92    0.00
 tengy       72000     1.43     1.43     1.43     1.43    0.00
 Total                24.42    24.42    24.42    24.42    0.00

 Task  times  cpu:       26.6s     wall:       26.6s
 Summary of allocated global arrays
-----------------------------------
  No active global arrays


MA_summarize_allocated_blocks: starting scan ...
MA_summarize_allocated_blocks: scan completed: 0 heap blocks, 0 stack blocks
MA usage statistics:

	allocation statistics:
					      heap	     stack
					      ----	     -----
	current number of blocks	         0	         0
	maximum number of blocks	        17	        41
	current total bytes		         0	         0
	maximum total bytes		  96555632	 377953640
	maximum total K-bytes		     96556	    377954
	maximum total M-bytes		        97	       378


                                NWChem Input Module
                                -------------------




                                     CITATION
                                     --------
                Please cite the following reference when publishing
                           results obtained with NWChem:

          E. Apra, E. J. Bylaska, W. A. de Jong, N. Govind, K. Kowalski,
       T. P. Straatsma, M. Valiev, H. J. J. van Dam, Y. Alexeev, J. Anchell,
       V. Anisimov, F. W. Aquino, R. Atta-Fynn, J. Autschbach, N. P. Bauman,
     J. C. Becca, D. E. Bernholdt, K. Bhaskaran-Nair, S. Bogatko, P. Borowski,
         J. Boschen, J. Brabec, A. Bruner, E. Cauet, Y. Chen, G. N. Chuev,
      C. J. Cramer, J. Daily, M. J. O. Deegan, T. H. Dunning Jr., M. Dupuis,
   K. G. Dyall, G. I. Fann, S. A. Fischer, A. Fonari, H. Fruchtl, L. Gagliardi,
      J. Garza, N. Gawande, S. Ghosh, K. Glaesemann, A. W. Gotz, J. Hammond,
       V. Helms, E. D. Hermes, K. Hirao, S. Hirata, M. Jacquelin, L. Jensen,
   B. G. Johnson, H. Jonsson, R. A. Kendall, M. Klemm, R. Kobayashi, V. Konkov,
      S. Krishnamoorthy, M. Krishnan, Z. Lin, R. D. Lins, R. J. Littlefield,
      A. J. Logsdail, K. Lopata, W. Ma, A. V. Marenich, J. Martin del Campo,
   D. Mejia-Rodriguez, J. E. Moore, J. M. Mullin, T. Nakajima, D. R. Nascimento,
    J. A. Nichols, P. J. Nichols, J. Nieplocha, A. Otero-de-la-Roza, B. Palmer,
    A. Panyala, T. Pirojsirikul, B. Peng, R. Peverati, J. Pittner, L. Pollack,
   R. M. Richard, P. Sadayappan, G. C. Schatz, W. A. Shelton, D. W. Silverstein,
   D. M. A. Smith, T. A. Soares, D. Song, M. Swart, H. L. Taylor, G. S. Thomas,
            V. Tipparaju, D. G. Truhlar, K. Tsemekhman, T. Van Voorhis,
      A. Vazquez-Mayagoitia, P. Verma, O. Villa, A. Vishnu, K. D. Vogiatzis,
        D. Wang, J. H. Weare, M. J. Williamson, T. L. Windus, K. Wolinski,
        A. T. Wong, Q. Wu, C. Yang, Q. Yu, M. Zacharias, Z. Zhang, Y. Zhao,
                                and R. J. Harrison
                        "NWChem: Past, present, and future
                         J. Chem. Phys. 152, 184102 (2020)
                               doi:10.1063/5.0004997

                                      AUTHORS
                                      -------
  E. Apra, E. J. Bylaska, N. Govind, K. Kowalski, M. Valiev, D. Mejia-Rodriguez,
       A. Kunitsa, N. P. Bauman, A. Panyala, W. A. de Jong, T. P. Straatsma,
   H. J. J. van Dam, D. Wang, T. L. Windus, J. Hammond, J. Autschbach, A. Woods,
    K. Bhaskaran-Nair, J. Brabec, K. Lopata, S. A. Fischer, S. Krishnamoorthy,
     M. Jacquelin, W. Ma, M. Klemm, O. Villa, Y. Chen, V. Anisimov, F. Aquino,
     S. Hirata, M. T. Hackler, E. Hermes, L. Jensen, J. E. Moore, J. C. Becca,
      V. Konjkov, T. Risthaus, M. Malagoli, A. Marenich, A. Otero-de-la-Roza,
        J. Mullin, P. Nichols, R. Peverati, J. Pittner, Y. Zhao, P.-D. Fan,
        A. Fonari, M. J. Williamson, R. J. Harrison, J. R. Rehr, M. Dupuis,
     D. Silverstein, D. M. A. Smith, J. Nieplocha, V. Tipparaju, M. Krishnan,
     B. E. Van Kuiken, A. Vazquez-Mayagoitia, M. Swart, Q. Wu, T. Van Voorhis,
     A. A. Auer, M. Nooijen, L. D. Crosby, E. Brown, G. Cisneros, G. I. Fann,
   H. Fruchtl, J. Garza, K. Hirao, R. A. Kendall, J. A. Nichols, K. Tsemekhman,
    K. Wolinski, J. Anchell, D. E. Bernholdt, P. Borowski, T. Clark, D. Clerc,
   H. Dachsel, M. J. O. Deegan, K. Dyall, D. Elwood, E. Glendening, M. Gutowski,
   A. C. Hess, J. Jaffe, B. G. Johnson, J. Ju, R. Kobayashi, R. Kutteh, Z. Lin,
   R. Littlefield, X. Long, B. Meng, T. Nakajima, S. Niu, L. Pollack, M. Rosing,
   K. Glaesemann, G. Sandrone, M. Stave, H. Taylor, G. Thomas, J. H. van Lenthe,
                               A. T. Wong, Z. Zhang.

 Total times  cpu:       26.6s     wall:       26.6s
