 argument  1 = data/water/5.5/input_B_AB.txt
                                         
                                         


             Northwest Computational Chemistry Package (NWChem) 7.2.3
             --------------------------------------------------------


                    Environmental Molecular Sciences Laboratory
                       Pacific Northwest National Laboratory
                                Richland, WA 99352

                              Copyright (c) 1994-2022
                       Pacific Northwest National Laboratory
                            Battelle Memorial Institute

             NWChem is an open-source computational chemistry package
                        distributed under the terms of the
                      Educational Community License (ECL) 2.0
             A copy of the license is included with this distribution
                              in the LICENSE.TXT file

                                  ACKNOWLEDGMENT
                                  --------------

            This software and its documentation were developed at the
            EMSL at Pacific Northwest National Laboratory, a multiprogram
            national laboratory, operated for the U.S. Department of Energy
            by Battelle under Contract Number DE-AC05-76RL01830. Support
            for this work was provided by the Department of Energy Office
            of Biological and Environmental Research, Office of Basic
            Energy Sciences, and the Office of Advanced Scientific Computing.


           Job information
           ---------------

    hostname        = ibrahims-air-8.misc.iastate.edu
    program         = nwchem
    date            = Mon Jun  9 14:38:26 2025

    compiled        = Thu_Dec_26_16:03:44_2024
    source          = /private/tmp/nwchem-20241226-24280-orrtsi/nwchem-7.2.3
    nwchem branch   = 7.2.3
    nwchem revision = d690e065
    ga revision     = 5.8.0
    use scalapack   = T
    input           = data/water/5.5/input_B_AB.txt
    prefix          = input_B_AB.
    data base       = ./input_B_AB.db
    status          = restart
    nproc           =        1
    time left       =     -1s



           Memory information
           ------------------

    heap     =   26214396 doubles =    200.0 Mbytes
    stack    =   26214401 doubles =    200.0 Mbytes
    global   =   52428800 doubles =    400.0 Mbytes (distinct from heap & stack)
    total    =  104857597 doubles =    800.0 Mbytes
    verify   = yes
    hardfail = no 


           Directory information
           ---------------------

  0 permanent = .
  0 scratch   = .


           Previous task information
           -------------------------

    Theory    = ccsd(t)                         
    Operation = energy                        
    Status    = ok                            
    Qmmm      = F
    Ignore    = F


           Geometries in the database
           --------------------------

       Name                              Natoms  Last Modified
       --------------------------------  ------  ------------------------
    1  geometry                               6  Mon Jun  9 14:37:42 2025  

  The geometry named "geometry" is the default for restart



           Basis sets in the database
           --------------------------

       Name                              Natoms  Last Modified
        --------------------------------  ------  ------------------------
    1  ao basis                               4  Mon Jun  9 14:37:42 2025  

  The basis set named "ao basis" is the default AO basis for restart




                                NWChem Input Module
                                -------------------



 Scaling coordinates for geometry "geometry" by  1.889725989
 (inverse scale =  0.529177249)

 CS  symmetry detected

          ------
          auto-z
          ------
  autoz: The atoms group into disjoint clusters
 cluster   1:    1    2    3
 cluster   2:    4    5    6
 Clusters   1   2 closest atoms are    1    4 r = 5.50 ... close but too far?
     1 autoz failed with cvr_scaling = 1.2 changing to 1.3
  autoz: The atoms group into disjoint clusters
 cluster   1:    1    2    3
 cluster   2:    4    5    6
 Clusters   1   2 closest atoms are    1    4 r = 5.50 ... close but too far?
     2 autoz failed with cvr_scaling = 1.3 changing to 1.4
  autoz: The atoms group into disjoint clusters
 cluster   1:    1    2    3
 cluster   2:    4    5    6
 Connecting clusters   1   2 via atoms    1    4 r = 5.50
  autoz: regenerating connections with new bonds
  no constraints, skipping    0.0000000000000000     
  no constraints, skipping    0.0000000000000000     


                             Geometry "geometry" -> ""
                             -------------------------

 Output coordinates in angstroms (scale by  1.889725989 to convert to a.u.)

  No.       Tag          Charge          X              Y              Z
 ---- ---------------- ---------- -------------- -------------- --------------
    1 bqO                  0.0000    -0.52930461    -5.47576405     0.00000000
    2 bqH                  0.0000     0.06391532    -5.52018114    -0.76111070
    3 bqH                  0.0000     0.06391532    -5.52018114     0.76111070
    4 O                    8.0000    -0.11864399     0.00888342     0.00000000
    5 H                    1.0000     0.47457594    -0.03553367    -0.76111070
    6 H                    1.0000     0.47457594    -0.03553367     0.76111070

      Atomic Mass 
      ----------- 

      O                 15.994910
      H                  1.007825


 Effective nuclear repulsion energy (a.u.)       9.1123991191

            Nuclear Dipole moment (a.u.) 
            ----------------------------
        X                 Y               Z
 ---------------- ---------------- ----------------
     0.0000000000     0.0000000000     0.0000000000

      Symmetry information
      --------------------

 Group name             Cs        
 Group number              2
 Group order               2
 No. of unique centers     4

      Symmetry unique atoms

     1    2    4    5



                                Z-matrix (autoz)
                                -------- 

 Units are Angstrom for bonds and degrees for angles

      Type          Name      I     J     K     L     M      Value
      ----------- --------  ----- ----- ----- ----- ----- ----------
    1 Stretch                  1     4                       5.50000
    2 Stretch                  1     2                       0.96601
    3 Stretch                  1     3                       0.96601
    4 Stretch                  4     5                       0.96601
    5 Stretch                  4     6                       0.96601
    6 Bend                     1     4     5                90.00000
    7 Bend                     1     4     6                90.00000
    8 Bend                     2     1     4                90.00000
    9 Bend                     2     1     3               103.97798
   10 Bend                     3     1     4                90.00000
   11 Bend                     5     4     6               103.97798
   12 Torsion                  2     1     4     5          -0.00000
   13 Torsion                  2     1     4     6        -103.97798
   14 Torsion                  3     1     4     5         103.97798
   15 Torsion                  3     1     4     6           0.00000


            XYZ format geometry
            -------------------
     6
 geometry
 bqO                  -0.52930461    -5.47576405     0.00000000
 bqH                   0.06391532    -5.52018114    -0.76111070
 bqH                   0.06391532    -5.52018114     0.76111070
 O                    -0.11864399     0.00888342     0.00000000
 H                     0.47457594    -0.03553367    -0.76111070
 H                     0.47457594    -0.03553367     0.76111070

 ==============================================================================
                                internuclear distances
 ------------------------------------------------------------------------------
       center one      |      center two      | atomic units |  angstroms
 ------------------------------------------------------------------------------
    2 bqH              |   1 bqO              |     1.82549  |     0.96601
    3 bqH              |   1 bqO              |     1.82549  |     0.96601
    3 bqH              |   2 bqH              |     2.87658  |     1.52222
    5 H                |   4 O                |     1.82549  |     0.96601
    6 H                |   4 O                |     1.82549  |     0.96601
 ------------------------------------------------------------------------------
                         number of included internuclear distances:          5
 ==============================================================================



 ==============================================================================
                                 internuclear angles
 ------------------------------------------------------------------------------
        center 1       |       center 2       |       center 3       |  degrees
 ------------------------------------------------------------------------------
    2 bqH              |   1 bqO              |   3 bqH              |   103.98
    2 bqH              |   1 bqO              |   3 bqH              |   103.98
    3 bqH              |   1 bqO              |   2 bqH              |   103.98
    5 H                |   4 O                |   6 H                |   103.98
 ------------------------------------------------------------------------------
                            number of included internuclear angles:          4
 ==============================================================================



  library name resolved from: .nwchemrc
  library file name is: </opt/homebrew/Cellar/nwchem/7.2.3_1/share/nwchem/libraries/>
  
                      Basis "ao basis" -> "" (spherical)
                      -----
  bqO
  ---
            Exponent  Coefficients 
       -------------- ---------------------------------------------------------
  1 S  1.17200000E+04  0.000710
  1 S  1.75900000E+03  0.005470
  1 S  4.00800000E+02  0.027837
  1 S  1.13700000E+02  0.104800
  1 S  3.70300000E+01  0.283062
  1 S  1.32700000E+01  0.448719
  1 S  5.02500000E+00  0.270952
  1 S  1.01300000E+00  0.015458

  2 S  1.17200000E+04 -0.000160
  2 S  1.75900000E+03 -0.001263
  2 S  4.00800000E+02 -0.006267
  2 S  1.13700000E+02 -0.025716
  2 S  3.70300000E+01 -0.070924
  2 S  1.32700000E+01 -0.165411
  2 S  5.02500000E+00 -0.116955
  2 S  1.01300000E+00  0.557368

  3 S  3.02300000E-01  1.000000

  4 S  7.89600000E-02  1.000000

  5 P  1.77000000E+01  0.043018
  5 P  3.85400000E+00  0.228913
  5 P  1.04600000E+00  0.508728

  6 P  2.75300000E-01  1.000000

  7 P  6.85600000E-02  1.000000

  8 D  1.18500000E+00  1.000000

  9 D  3.32000000E-01  1.000000

  bqH
  ---
            Exponent  Coefficients 
       -------------- ---------------------------------------------------------
  1 S  1.30100000E+01  0.019685
  1 S  1.96200000E+00  0.137977
  1 S  4.44600000E-01  0.478148

  2 S  1.22000000E-01  1.000000

  3 S  2.97400000E-02  1.000000

  4 P  7.27000000E-01  1.000000

  5 P  1.41000000E-01  1.000000

  O (Oxygen)
  ----------
            Exponent  Coefficients 
       -------------- ---------------------------------------------------------
  1 S  1.17200000E+04  0.000710
  1 S  1.75900000E+03  0.005470
  1 S  4.00800000E+02  0.027837
  1 S  1.13700000E+02  0.104800
  1 S  3.70300000E+01  0.283062
  1 S  1.32700000E+01  0.448719
  1 S  5.02500000E+00  0.270952
  1 S  1.01300000E+00  0.015458

  2 S  1.17200000E+04 -0.000160
  2 S  1.75900000E+03 -0.001263
  2 S  4.00800000E+02 -0.006267
  2 S  1.13700000E+02 -0.025716
  2 S  3.70300000E+01 -0.070924
  2 S  1.32700000E+01 -0.165411
  2 S  5.02500000E+00 -0.116955
  2 S  1.01300000E+00  0.557368

  3 S  3.02300000E-01  1.000000

  4 S  7.89600000E-02  1.000000

  5 P  1.77000000E+01  0.043018
  5 P  3.85400000E+00  0.228913
  5 P  1.04600000E+00  0.508728

  6 P  2.75300000E-01  1.000000

  7 P  6.85600000E-02  1.000000

  8 D  1.18500000E+00  1.000000

  9 D  3.32000000E-01  1.000000

  H (Hydrogen)
  ------------
            Exponent  Coefficients 
       -------------- ---------------------------------------------------------
  1 S  1.30100000E+01  0.019685
  1 S  1.96200000E+00  0.137977
  1 S  4.44600000E-01  0.478148

  2 S  1.22000000E-01  1.000000

  3 S  2.97400000E-02  1.000000

  4 P  7.27000000E-01  1.000000

  5 P  1.41000000E-01  1.000000



 Summary of "ao basis" -> "" (spherical)
 ------------------------------------------------------------------------------
       Tag                 Description            Shells   Functions and Types
 ---------------- ------------------------------  ------  ---------------------
 bqO                      aug-cc-pvdz                9       23   4s3p2d
 bqH                      aug-cc-pvdz                5        9   3s2p
 O                        aug-cc-pvdz                9       23   4s3p2d
 H                        aug-cc-pvdz                5        9   3s2p


                                 NWChem SCF Module
                                 -----------------



  ao basis        = "ao basis"
  functions       =    82
  atoms           =     6
  closed shells   =     5
  open shells     =     0
  charge          =   0.00
  wavefunction    = RHF 
  input vectors   = ./input_B_AB.movecs
  output vectors  = ./input_B_AB.movecs
  use symmetry    = T
  symmetry adapt  = T


 Summary of "ao basis" -> "ao basis" (spherical)
 ------------------------------------------------------------------------------
       Tag                 Description            Shells   Functions and Types
 ---------------- ------------------------------  ------  ---------------------
 bqO                      aug-cc-pvdz                9       23   4s3p2d
 bqH                      aug-cc-pvdz                5        9   3s2p
 O                        aug-cc-pvdz                9       23   4s3p2d
 H                        aug-cc-pvdz                5        9   3s2p


      Symmetry analysis of basis
      --------------------------

        a'         50
        a"         32


 Forming initial guess at       0.2s


 Loading old vectors from job with title :




      Symmetry analysis of molecular orbitals - initial
      -------------------------------------------------

  Numbering of irreducible representations: 

     1 a'          2 a"      

  Orbital symmetries:

     1 a'          2 a'          3 a"          4 a'          5 a'      
     6 a'          7 a'          8 a"          9 a"         10 a'      
    11 a'         12 a'         13 a'         14 a"         15 a'      


 Starting SCF solution at       0.2s



 ----------------------------------------------
         Quadratically convergent ROHF

 Convergence threshold     :          1.000E-06
 Maximum no. of iterations :           30
 Final Fock-matrix accuracy:          1.000E-08
 ----------------------------------------------


 Integral file          = ./input_B_AB.aoints.0
 Record size in doubles =  65536        No. of integs per rec  =  43688
 Max. records in memory =    120        Max. records in file   =   8640
 No. of bits per label  =      8        No. of bits per value  =     64


 #quartets = 1.084D+05 #integrals = 1.789D+06 #direct =  0.0% #cached =100.0%


              iter       energy          gnorm     gmax       time
             ----- ------------------- --------- --------- --------
                 1      -76.0407591014  1.14D-02  3.62D-03      0.4
                 2      -76.0407684460  5.11D-05  2.15D-05      0.5
                 3      -76.0407684464  5.22D-08  1.83D-08      0.6


       Final RHF  results 
       ------------------ 

         Total SCF energy =    -76.040768446378
      One-electron energy =   -122.828595353713
      Two-electron energy =     37.675427788274
 Nuclear repulsion energy =      9.112399119061

        Time for solution =      0.3s



       Symmetry analysis of molecular orbitals - final
       -----------------------------------------------

  Numbering of irreducible representations: 

     1 a'          2 a"      

  Orbital symmetries:

     1 a'          2 a'          3 a"          4 a'          5 a'      
     6 a'          7 a'          8 a"          9 a"         10 a'      
    11 a'         12 a'         13 a'         14 a"         15 a'      

             Final eigenvalues
             -----------------

              1      
    1  -20.5790
    2   -1.3525
    3   -0.7135
    4   -0.5850
    5   -0.5089
    6    0.0288
    7    0.0461
    8    0.0531
    9    0.0716
   10    0.1465
   11    0.1469
   12    0.1658
   13    0.1786
   14    0.2063
   15    0.2206

                       ROHF Final Molecular Orbital Analysis
                       -------------------------------------

 Vector    2  Occ=2.000000D+00  E=-1.352524D+00  Symmetry=a'
              MO Center=  4.9D-02, -3.6D-03,  1.5D-18, r^2= 5.0D-01
   Bfn.  Coefficient  Atom+Function         Bfn.  Coefficient  Atom+Function  
  ----- ------------  ---------------      ----- ------------  ---------------
    43      0.449092  4 O  s                 44      0.381424  4 O  s          
    65      0.202369  5 H  s                 74      0.202369  6 H  s          

 Vector    3  Occ=2.000000D+00  E=-7.134735D-01  Symmetry=a"
              MO Center=  9.4D-02, -7.1D-03, -9.4D-17, r^2= 7.7D-01
   Bfn.  Coefficient  Atom+Function         Bfn.  Coefficient  Atom+Function  
  ----- ------------  ---------------      ----- ------------  ---------------
    48      0.498838  4 O  pz                65     -0.346993  5 H  s          
    74      0.346993  6 H  s                 51      0.197795  4 O  pz         

 Vector    4  Occ=2.000000D+00  E=-5.850133D-01  Symmetry=a'
              MO Center= -1.5D-01,  1.2D-02, -5.5D-18, r^2= 7.3D-01
   Bfn.  Coefficient  Atom+Function         Bfn.  Coefficient  Atom+Function  
  ----- ------------  ---------------      ----- ------------  ---------------
    46      0.545961  4 O  px                49      0.323239  4 O  px         
    44     -0.316241  4 O  s                 65      0.212428  5 H  s          
    74      0.212428  6 H  s                 43     -0.151874  4 O  s          

 Vector    5  Occ=2.000000D+00  E=-5.088800D-01  Symmetry=a'
              MO Center= -8.0D-02,  6.1D-03, -2.5D-18, r^2= 6.8D-01
   Bfn.  Coefficient  Atom+Function         Bfn.  Coefficient  Atom+Function  
  ----- ------------  ---------------      ----- ------------  ---------------
    47      0.627029  4 O  py                50      0.449284  4 O  py         

 Vector    6  Occ=0.000000D+00  E= 2.883954D-02  Symmetry=a'
              MO Center=  4.1D-01, -2.8D+00,  3.4D-16, r^2= 1.7D+01
   Bfn.  Coefficient  Atom+Function         Bfn.  Coefficient  Atom+Function  
  ----- ------------  ---------------      ----- ------------  ---------------
    45      1.037936  4 O  s                  4      0.890536  1 bq s          
    67     -0.525525  5 H  s                 76     -0.525525  6 H  s          
    26     -0.497227  2 bq s                 35     -0.497227  3 bq s          
    66     -0.332358  5 H  s                 75     -0.332358  6 H  s          
    25     -0.309034  2 bq s                 34     -0.309034  3 bq s          

 Vector    7  Occ=0.000000D+00  E= 4.611126D-02  Symmetry=a'
              MO Center=  4.7D-01, -2.8D+00,  3.1D-17, r^2= 2.2D+01
   Bfn.  Coefficient  Atom+Function         Bfn.  Coefficient  Atom+Function  
  ----- ------------  ---------------      ----- ------------  ---------------
    45      1.145377  4 O  s                  4     -0.925592  1 bq s          
    67     -0.678926  5 H  s                 76     -0.678926  6 H  s          
    26      0.630774  2 bq s                 35      0.630774  3 bq s          
    66     -0.328901  5 H  s                 75     -0.328901  6 H  s          
    25      0.279256  2 bq s                 34      0.279256  3 bq s          

 Vector    8  Occ=0.000000D+00  E= 5.313806D-02  Symmetry=a"
              MO Center=  6.4D-01, -2.1D+00, -1.7D-16, r^2= 2.1D+01
   Bfn.  Coefficient  Atom+Function         Bfn.  Coefficient  Atom+Function  
  ----- ------------  ---------------      ----- ------------  ---------------
    67      2.144600  5 H  s                 76     -2.144600  6 H  s          
    26      1.532401  2 bq s                 35     -1.532401  3 bq s          
    54      0.612874  4 O  pz                13      0.403784  1 bq pz         
    66      0.392163  5 H  s                 75     -0.392163  6 H  s          
    25      0.286314  2 bq s                 34     -0.286314  3 bq s          

 Vector    9  Occ=0.000000D+00  E= 7.157939D-02  Symmetry=a"
              MO Center=  5.5D-01, -3.5D+00,  2.9D-16, r^2= 2.5D+01
   Bfn.  Coefficient  Atom+Function         Bfn.  Coefficient  Atom+Function  
  ----- ------------  ---------------      ----- ------------  ---------------
    26      2.518107  2 bq s                 35     -2.518107  3 bq s          
    67     -2.135347  5 H  s                 76      2.135347  6 H  s          
    13      0.586196  1 bq pz                54     -0.555406  4 O  pz         
    25      0.430823  2 bq s                 34     -0.430823  3 bq s          
    66     -0.365145  5 H  s                 75      0.365145  6 H  s          

 Vector   10  Occ=0.000000D+00  E= 1.465298D-01  Symmetry=a'
              MO Center= -9.6D-01, -5.0D+00,  7.1D-17, r^2= 8.3D+00
   Bfn.  Coefficient  Atom+Function         Bfn.  Coefficient  Atom+Function  
  ----- ------------  ---------------      ----- ------------  ---------------
    11      1.528901  1 bq px                45      1.058269  4 O  s          
     4      1.029681  1 bq s                 25     -0.774172  2 bq s          
    34     -0.774172  3 bq s                 52      0.554171  4 O  px         
    66     -0.489015  5 H  s                 75     -0.489015  6 H  s          
    67     -0.162178  5 H  s                 76     -0.162178  6 H  s          

 Vector   11  Occ=0.000000D+00  E= 1.469163D-01  Symmetry=a'
              MO Center= -5.6D-01, -4.0D+00, -1.5D-16, r^2= 1.1D+01
   Bfn.  Coefficient  Atom+Function         Bfn.  Coefficient  Atom+Function  
  ----- ------------  ---------------      ----- ------------  ---------------
     4      1.422769  1 bq s                 12      1.033363  1 bq py         
    45      0.837615  4 O  s                 53     -0.582168  4 O  py         
    25     -0.476956  2 bq s                 34     -0.476956  3 bq s          
    66     -0.354368  5 H  s                 75     -0.354368  6 H  s          
    11      0.342684  1 bq px                26     -0.268654  2 bq s          

 Vector   12  Occ=0.000000D+00  E= 1.658276D-01  Symmetry=a'
              MO Center= -2.1D-01, -4.9D+00,  5.4D-16, r^2= 1.2D+01
   Bfn.  Coefficient  Atom+Function         Bfn.  Coefficient  Atom+Function  
  ----- ------------  ---------------      ----- ------------  ---------------
     4      4.196410  1 bq s                 45      1.416675  4 O  s          
    25     -1.298391  2 bq s                 34     -1.298391  3 bq s          
    26     -0.831912  2 bq s                 35     -0.831912  3 bq s          
    52      0.682335  4 O  px                66     -0.668981  5 H  s          
    75     -0.668981  6 H  s                 11      0.653735  1 bq px         

 Vector   13  Occ=0.000000D+00  E= 1.785563D-01  Symmetry=a'
              MO Center= -2.6D-01, -1.0D+00, -6.8D-16, r^2= 1.3D+01
   Bfn.  Coefficient  Atom+Function         Bfn.  Coefficient  Atom+Function  
  ----- ------------  ---------------      ----- ------------  ---------------
    45      3.651721  4 O  s                  4     -1.715943  1 bq s          
    52      1.672340  4 O  px                66     -1.537646  5 H  s          
    75     -1.537646  6 H  s                 11     -0.674862  1 bq px         
    67     -0.612092  5 H  s                 76     -0.612092  6 H  s          
    25      0.585843  2 bq s                 34      0.585843  3 bq s          

 Vector   14  Occ=0.000000D+00  E= 2.063167D-01  Symmetry=a"
              MO Center= -6.2D-01, -5.3D+00,  3.1D-15, r^2= 1.1D+01
   Bfn.  Coefficient  Atom+Function         Bfn.  Coefficient  Atom+Function  
  ----- ------------  ---------------      ----- ------------  ---------------
    13      2.866825  1 bq pz                26      2.624732  2 bq s          
    35     -2.624732  3 bq s                 25      2.076376  2 bq s          
    34     -2.076376  3 bq s                 54      0.577761  4 O  pz         
    66      0.471069  5 H  s                 75     -0.471069  6 H  s          
    30     -0.419798  2 bq px                39      0.419798  3 bq px         

 Vector   15  Occ=0.000000D+00  E= 2.205846D-01  Symmetry=a'
              MO Center= -1.9D-01, -6.5D-01,  3.7D-16, r^2= 9.3D+00
   Bfn.  Coefficient  Atom+Function         Bfn.  Coefficient  Atom+Function  
  ----- ------------  ---------------      ----- ------------  ---------------
    45      1.916122  4 O  s                  4      0.718240  1 bq s          
    52     -0.645833  4 O  px                53     -0.565641  4 O  py         
    67     -0.484874  5 H  s                 76     -0.484874  6 H  s          
    71      0.401184  5 H  px                80      0.401184  6 H  px         
    25     -0.370567  2 bq s                 34     -0.370567  3 bq s          

 Vector   16  Occ=0.000000D+00  E= 2.342203D-01  Symmetry=a"
              MO Center= -2.1D-01, -1.9D-01,  4.3D-15, r^2= 1.2D+01
   Bfn.  Coefficient  Atom+Function         Bfn.  Coefficient  Atom+Function  
  ----- ------------  ---------------      ----- ------------  ---------------
    54      3.067968  4 O  pz                67      2.764044  5 H  s          
    76     -2.764044  6 H  s                 66      2.602510  5 H  s          
    75     -2.602510  6 H  s                 26     -0.791841  2 bq s          
    35      0.791841  3 bq s                 13     -0.589814  1 bq pz         
    73      0.582659  5 H  pz                82      0.582659  6 H  pz         

 Vector   17  Occ=0.000000D+00  E= 2.378115D-01  Symmetry=a'
              MO Center= -2.0D-01, -7.1D-01, -4.2D-15, r^2= 1.4D+01
   Bfn.  Coefficient  Atom+Function         Bfn.  Coefficient  Atom+Function  
  ----- ------------  ---------------      ----- ------------  ---------------
    45      2.699301  4 O  s                 53      1.154331  4 O  py         
     4     -1.116241  1 bq s                 66     -0.763443  5 H  s          
    75     -0.763443  6 H  s                 12      0.740888  1 bq py         
    67     -0.618592  5 H  s                 76     -0.618592  6 H  s          
    25      0.468230  2 bq s                 34      0.468230  3 bq s          

 Vector   18  Occ=0.000000D+00  E= 2.882058D-01  Symmetry=a"
              MO Center=  4.4D-01, -5.6D-02,  3.5D-18, r^2= 4.5D+00
   Bfn.  Coefficient  Atom+Function         Bfn.  Coefficient  Atom+Function  
  ----- ------------  ---------------      ----- ------------  ---------------
    66      0.943960  5 H  s                 75     -0.943960  6 H  s          
    54      0.862159  4 O  pz                71      0.475545  5 H  px         
    80     -0.475545  6 H  px                73     -0.434738  5 H  pz         
    82     -0.434738  6 H  pz                67     -0.355997  5 H  s          
    76      0.355997  6 H  s                 51      0.268796  4 O  pz         

 Vector   19  Occ=0.000000D+00  E= 3.287822D-01  Symmetry=a'
              MO Center=  1.6D-01, -6.0D-01,  9.2D-16, r^2= 7.6D+00
   Bfn.  Coefficient  Atom+Function         Bfn.  Coefficient  Atom+Function  
  ----- ------------  ---------------      ----- ------------  ---------------
    45      4.073180  4 O  s                 66     -2.250258  5 H  s          
    75     -2.250258  6 H  s                  4      1.704695  1 bq s          
    25     -1.012616  2 bq s                 34     -1.012616  3 bq s          
    52      0.586568  4 O  px                11      0.457895  1 bq px         
    71      0.405141  5 H  px                80      0.405141  6 H  px         

 Vector   20  Occ=0.000000D+00  E= 3.667146D-01  Symmetry=a"
              MO Center=  7.0D-02, -4.9D+00, -9.8D-16, r^2= 8.0D+00
   Bfn.  Coefficient  Atom+Function         Bfn.  Coefficient  Atom+Function  
  ----- ------------  ---------------      ----- ------------  ---------------
    25      1.419517  2 bq s                 34     -1.419517  3 bq s          
    13      1.357625  1 bq pz                32     -0.490788  2 bq pz         
    41     -0.490788  3 bq pz                72      0.370646  5 H  py         
    81     -0.370646  6 H  py                30      0.284806  2 bq px         
    39     -0.284806  3 bq px                10      0.154033  1 bq pz         

 Vector   21  Occ=0.000000D+00  E= 3.815872D-01  Symmetry=a'
              MO Center=  2.2D-01, -2.5D+00, -2.4D-16, r^2= 1.2D+01
   Bfn.  Coefficient  Atom+Function         Bfn.  Coefficient  Atom+Function  
  ----- ------------  ---------------      ----- ------------  ---------------
     4      3.969270  1 bq s                 25     -2.375114  2 bq s          
    34     -2.375114  3 bq s                 45      1.991431  4 O  s          
    11      1.074315  1 bq px                66     -1.057097  5 H  s          
    75     -1.057097  6 H  s                 52      1.044134  4 O  px         
    71     -0.555805  5 H  px                80     -0.555805  6 H  px         

 Vector   22  Occ=0.000000D+00  E= 3.884180D-01  Symmetry=a"
              MO Center=  4.7D-01, -8.0D-01,  4.0D-16, r^2= 7.7D+00
   Bfn.  Coefficient  Atom+Function         Bfn.  Coefficient  Atom+Function  
  ----- ------------  ---------------      ----- ------------  ---------------
    72      1.056419  5 H  py                81     -1.056419  6 H  py         
    25     -0.637824  2 bq s                 34      0.637824  3 bq s          
    13     -0.355212  1 bq pz                26      0.281211  2 bq s          
    35     -0.281211  3 bq s                 31     -0.172603  2 bq py         
    40      0.172603  3 bq py         

 Vector   23  Occ=0.000000D+00  E= 4.097876D-01  Symmetry=a'
              MO Center=  3.0D-02, -4.1D+00,  1.1D-15, r^2= 1.0D+01
   Bfn.  Coefficient  Atom+Function         Bfn.  Coefficient  Atom+Function  
  ----- ------------  ---------------      ----- ------------  ---------------
    45      2.034593  4 O  s                  4     -1.732675  1 bq s          
    66     -1.084084  5 H  s                 75     -1.084084  6 H  s          
    25      1.016882  2 bq s                 34      1.016882  3 bq s          
    52      0.821877  4 O  px                30     -0.734865  2 bq px         
    39     -0.734865  3 bq px                32     -0.352087  2 bq pz         

 Vector   24  Occ=0.000000D+00  E= 4.294914D-01  Symmetry=a'
              MO Center=  7.7D-02, -4.1D+00,  1.1D-15, r^2= 1.1D+01
   Bfn.  Coefficient  Atom+Function         Bfn.  Coefficient  Atom+Function  
  ----- ------------  ---------------      ----- ------------  ---------------
     4      2.460399  1 bq s                 45     -2.069359  4 O  s          
    25     -1.523195  2 bq s                 34     -1.523195  3 bq s          
    11      1.453343  1 bq px                66      1.133204  5 H  s          
    75      1.133204  6 H  s                 52     -0.948143  4 O  px         
    30     -0.592098  2 bq px                39     -0.592098  3 bq px         

 Vector   25  Occ=0.000000D+00  E= 4.375269D-01  Symmetry=a"
              MO Center=  1.5D-01, -5.3D+00, -1.1D-15, r^2= 5.4D+00
   Bfn.  Coefficient  Atom+Function         Bfn.  Coefficient  Atom+Function  
  ----- ------------  ---------------      ----- ------------  ---------------
    31      1.158233  2 bq py                40     -1.158233  3 bq py         
    67     -0.331955  5 H  s                 76      0.331955  6 H  s          
    66      0.245585  5 H  s                 75     -0.245585  6 H  s          
    73      0.198797  5 H  pz                82      0.198797  6 H  pz         
    54     -0.180372  4 O  pz                72      0.171005  5 H  py         

 Vector   26  Occ=0.000000D+00  E= 4.388092D-01  Symmetry=a'
              MO Center=  3.3D-01, -9.5D-01, -5.6D-16, r^2= 8.4D+00
   Bfn.  Coefficient  Atom+Function         Bfn.  Coefficient  Atom+Function  
  ----- ------------  ---------------      ----- ------------  ---------------
    53      1.152149  4 O  py                72     -1.095099  5 H  py         
    81     -1.095099  6 H  py                 4      0.732614  1 bq s          
    45     -0.603273  4 O  s                 50      0.577008  4 O  py         
    25     -0.492595  2 bq s                 34     -0.492595  3 bq s          
    66      0.379854  5 H  s                 75      0.379854  6 H  s          

 Vector   27  Occ=0.000000D+00  E= 4.667103D-01  Symmetry=a'
              MO Center= -1.8D-01, -4.5D+00,  9.9D-16, r^2= 8.6D+00
   Bfn.  Coefficient  Atom+Function         Bfn.  Coefficient  Atom+Function  
  ----- ------------  ---------------      ----- ------------  ---------------
    45      2.260655  4 O  s                  4     -1.965215  1 bq s          
    12     -1.327764  1 bq py                25      1.249821  2 bq s          
    34      1.249821  3 bq s                 66     -1.230200  5 H  s          
    75     -1.230200  6 H  s                 31      1.047947  2 bq py         
    40      1.047947  3 bq py                11     -0.878578  1 bq px         

 Vector   28  Occ=0.000000D+00  E= 4.843430D-01  Symmetry=a'
              MO Center= -1.7D-02, -5.5D+00, -4.0D-15, r^2= 6.0D+00
   Bfn.  Coefficient  Atom+Function         Bfn.  Coefficient  Atom+Function  
  ----- ------------  ---------------      ----- ------------  ---------------
     4      5.613946  1 bq s                 25     -2.648630  2 bq s          
    34     -2.648630  3 bq s                 32     -1.093505  2 bq pz         
    41      1.093505  3 bq pz                 3      1.074742  1 bq s          
    30      0.826063  2 bq px                39      0.826063  3 bq px         
    11      0.692226  1 bq px                26     -0.681932  2 bq s          

 Vector   29  Occ=0.000000D+00  E= 5.361112D-01  Symmetry=a"
              MO Center=  3.4D-01, -1.2D+00, -1.6D-15, r^2= 1.0D+01
   Bfn.  Coefficient  Atom+Function         Bfn.  Coefficient  Atom+Function  
  ----- ------------  ---------------      ----- ------------  ---------------
    73      2.038353  5 H  pz                82      2.038353  6 H  pz         
    54     -1.657257  4 O  pz                66      1.279951  5 H  s          
    75     -1.279951  6 H  s                 13     -1.120707  1 bq pz         
    71      0.918981  5 H  px                80     -0.918981  6 H  px         
    25     -0.810973  2 bq s                 34      0.810973  3 bq s          


 center of mass
 --------------
 x =  -0.09874543 y =   0.00739352 z =   0.00000000

 moments of inertia (a.u.)
 ------------------
           4.182346422520           0.168435327416           0.000000000000
           0.168435327416           6.419301431783           0.000000000000
           0.000000000000           0.000000000000           2.262178054786

  Mulliken analysis of the total density
  --------------------------------------

    Atom       Charge   Shell Charges
 -----------   ------   -------------------------------------------------------
    1 X    0    -0.00  -0.00 -0.00 -0.00 -0.00 -0.00  0.00 -0.00  0.00  0.00
    2 X    0    -0.00   0.00  0.00 -0.00 -0.00  0.00
    3 X    0    -0.00   0.00  0.00 -0.00 -0.00  0.00
    4 O    8     8.32   2.00  0.84  0.82  0.09  2.82  1.64  0.12  0.01 -0.02
    5 H    1     0.84   0.72  0.03 -0.00  0.08  0.02
    6 H    1     0.84   0.72  0.03 -0.00  0.08  0.02

       Multipole analysis of the density wrt the origin
       ------------------------------------------------

     L   x y z        total         open         nuclear
     -   - - -        -----         ----         -------
     0   0 0 0      0.000000      0.000000     10.000000

     1   1 0 0      0.790633      0.000000      0.000000
     1   0 1 0     -0.059720      0.000000      0.000000
     1   0 0 1     -0.000000      0.000000      0.000000

     2   2 0 0     -4.654430      0.000000      2.010709
     2   1 1 0     -0.074744      0.000000     -0.150551
     2   1 0 1      0.000000      0.000000      0.000000
     2   0 2 0     -5.649813      0.000000      0.011272
     2   0 1 1      0.000000      0.000000      0.000000
     2   0 0 2     -3.183450      0.000000      4.137360


 Parallel integral file used      41 records with       0 large values



                   Four-Index Transformation
                   -------------------------
          Number of basis functions:             82
          Number of shells:                      38
          Number of occupied orbitals:            5
          Number of occ. correlated orbitals:     5
          Block length:                          16
          Superscript MO index range:      1 -    5
          Subscript MO index range:        1 -   82
          MO coefficients read from:  ./input_B_AB.movecs      
          Number of operator matrices in core:   30
          Half-transformed integrals produced

     Pass:    1     Index range:    1  -    5     Time:      0.68
 ------------------------------------------
 MP2 Energy (coupled cluster initial guess)
 ------------------------------------------
 Reference energy:            -76.040768446378181
 MP2 Corr. energy:             -0.222631278115098
 Total MP2 energy:            -76.263399724493283


 ****************************************************************************
              the segmented parallel ccsd program:    1 nodes
 ****************************************************************************




 level of theory    ccsd(t)
 number of core         0
 number of occupied     5
 number of virtual     77
 number of deleted      0
 total functions       82
 number of shells      38
 basis label          566



   ***** ccsd parameters *****
   iprt   =     0
   convi  =  0.100E-05
   maxit  =    20
   mxvec  =     5
 memory             52418924
  Using  1 OpenMP thread(s) in CCSD
  avail0,avail1,avail0-avail1                  4532                 4532                    0
  avail0,avail1,avail0-avail1                  4532                 4532                    0
  avail0,avail1,avail0-avail1                  4532                 4533                   -1
  avail0,avail1,avail0-avail1                  4532                 4537                   -5
  Restarting from old vector in ./input_B_AB.t2


-------------------------------------------------------------------------
 iter     correlation     delta       rms       T2     Non-T2      Main
             energy      energy      error      ampl     ampl      Block
                                                time     time      time
-------------------------------------------------------------------------
   1     -0.2297290861 -2.297D-01  8.124D-02     2.72     0.00     2.68
   2     -0.2287174071  1.012D-03  5.434D-03     0.31     0.00     0.27
   3     -0.2296918994 -9.745D-04  1.204D-02     0.28     0.00     0.24
   4     -0.2299877403 -2.958D-04  1.417D-02     0.28     0.00     0.24
   5     -0.2300596803 -7.194D-05  3.898D-03     0.28     0.00     0.24
   6     -0.2300918553 -3.218D-05  4.160D-04     0.28     0.00     0.25
   7     -0.2300989362 -7.081D-06  1.791D-04     0.28     0.00     0.24
   8     -0.2300962149  2.721D-06  4.939D-05     0.28     0.00     0.24
   9     -0.2300979060 -1.691D-06  3.515D-05     0.28     0.00     0.24
  10     -0.2300977506  1.554D-07  1.516D-05     0.27     0.00     0.24
  11     -0.2300977385  1.209D-08  1.517D-05     0.27     0.00     0.24
  12     -0.2300977440 -5.479D-09  1.014D-05     0.28     0.00     0.24
  13     -0.2300977174  2.659D-08  1.295D-06     0.27     0.00     0.24
  14     -0.2300977066  1.081D-08  4.989D-07     0.27     0.00     0.24
                  *************converged*************
-------------------------------------------------------------------------

 -----------
 CCSD Energy
 -----------
 Reference energy:             -76.040768446378181
 CCSD corr. energy:             -0.230097706610836
 Total CCSD energy:            -76.270866152989015


 --------------------------------
 Spin Component Scaled (SCS) CCSD
 --------------------------------
 Same spin contribution:                 -0.050226216532494
 Same spin scaling factor:                1.130000000000000
 Opposite spin contribution:             -0.179871490078342
 Opposite spin scaling fact.:             1.270000000000000
 SCS-CCSD correlation energy:            -0.285192417081212
 Total SCS-CCSD energy:                 -76.325960863459386
 memory             52418924


*********triples calculation*********

nkpass=    1; nvpass=    1; memdrv=         170401; memtrn=         942207; memavail=       52418524
 memory available/node                       52418524
 total number of virtual orbitals        77
 number of virtuals per integral pass    77
 number of integral evaluations           1
 number of occupied per triples pass      5
 number of triples passes                 1

 commencing integral evaluation        1 at           7.72
  symmetry use  T
task         2 out of       741 done   0%  at       0.0 secs
task        57 out of       741 done   7%  at       0.2 secs
task        75 out of       741 done  10%  at       0.2 secs
task       112 out of       741 done  15%  at       0.3 secs
task       149 out of       741 done  20%  at       0.4 secs
task       187 out of       741 done  25%  at       0.4 secs
task       223 out of       741 done  30%  at       0.5 secs
task       266 out of       741 done  35%  at       0.5 secs
task       297 out of       741 done  40%  at       0.6 secs
task       334 out of       741 done  45%  at       0.7 secs
task       374 out of       741 done  50%  at       0.7 secs
task       408 out of       741 done  55%  at       0.7 secs
task       445 out of       741 done  60%  at       0.8 secs
task       482 out of       741 done  65%  at       0.8 secs
task       519 out of       741 done  70%  at       0.8 secs
task       558 out of       741 done  75%  at       0.9 secs
task       597 out of       741 done  80%  at       0.9 secs
task       630 out of       741 done  85%  at       0.9 secs
task       667 out of       741 done  90%  at       1.0 secs
task       704 out of       741 done  95%  at       1.0 secs
task       741 out of       741 done 100%  at       1.0 secs
 commencing triples evaluation - blocking       1
 ccsd(t): done        1 out of       77 progress:    1.3%
 ccsd(t): done        2 out of       77 progress:    2.6%
 ccsd(t): done        3 out of       77 progress:    3.9%
 ccsd(t): done        4 out of       77 progress:    5.2%
 ccsd(t): done        5 out of       77 progress:    6.5%
 ccsd(t): done        6 out of       77 progress:    7.8%
 ccsd(t): done        7 out of       77 progress:    9.1%
 ccsd(t): done        8 out of       77 progress:   10.4%
 ccsd(t): done        9 out of       77 progress:   11.7%
 ccsd(t): done       10 out of       77 progress:   13.0%
 ccsd(t): done       11 out of       77 progress:   14.3%
 ccsd(t): done       12 out of       77 progress:   15.6%
 ccsd(t): done       13 out of       77 progress:   16.9%
 ccsd(t): done       14 out of       77 progress:   18.2%
 ccsd(t): done       15 out of       77 progress:   19.5%
 ccsd(t): done       16 out of       77 progress:   20.8%
 ccsd(t): done       17 out of       77 progress:   22.1%
 ccsd(t): done       18 out of       77 progress:   23.4%
 ccsd(t): done       19 out of       77 progress:   24.7%
 ccsd(t): done       20 out of       77 progress:   26.0%
 ccsd(t): done       21 out of       77 progress:   27.3%
 ccsd(t): done       22 out of       77 progress:   28.6%
 ccsd(t): done       23 out of       77 progress:   29.9%
 ccsd(t): done       24 out of       77 progress:   31.2%
 ccsd(t): done       25 out of       77 progress:   32.5%
 ccsd(t): done       26 out of       77 progress:   33.8%
 ccsd(t): done       27 out of       77 progress:   35.1%
 ccsd(t): done       28 out of       77 progress:   36.4%
 ccsd(t): done       29 out of       77 progress:   37.7%
 ccsd(t): done       30 out of       77 progress:   39.0%
 ccsd(t): done       31 out of       77 progress:   40.3%
 ccsd(t): done       32 out of       77 progress:   41.6%
 ccsd(t): done       33 out of       77 progress:   42.9%
 ccsd(t): done       34 out of       77 progress:   44.2%
 ccsd(t): done       35 out of       77 progress:   45.5%
 ccsd(t): done       36 out of       77 progress:   46.8%
 ccsd(t): done       37 out of       77 progress:   48.1%
 ccsd(t): done       38 out of       77 progress:   49.4%
 ccsd(t): done       39 out of       77 progress:   50.6%
 ccsd(t): done       40 out of       77 progress:   51.9%
 ccsd(t): done       41 out of       77 progress:   53.2%
 ccsd(t): done       42 out of       77 progress:   54.5%
 ccsd(t): done       43 out of       77 progress:   55.8%
 ccsd(t): done       44 out of       77 progress:   57.1%
 ccsd(t): done       45 out of       77 progress:   58.4%
 ccsd(t): done       46 out of       77 progress:   59.7%
 ccsd(t): done       47 out of       77 progress:   61.0%
 ccsd(t): done       48 out of       77 progress:   62.3%
 ccsd(t): done       49 out of       77 progress:   63.6%
 ccsd(t): done       50 out of       77 progress:   64.9%
 ccsd(t): done       51 out of       77 progress:   66.2%
 ccsd(t): done       52 out of       77 progress:   67.5%
 ccsd(t): done       53 out of       77 progress:   68.8%
 ccsd(t): done       54 out of       77 progress:   70.1%
 ccsd(t): done       55 out of       77 progress:   71.4%
 ccsd(t): done       56 out of       77 progress:   72.7%
 ccsd(t): done       57 out of       77 progress:   74.0%
 ccsd(t): done       58 out of       77 progress:   75.3%
 ccsd(t): done       59 out of       77 progress:   76.6%
 ccsd(t): done       60 out of       77 progress:   77.9%
 ccsd(t): done       61 out of       77 progress:   79.2%
 ccsd(t): done       62 out of       77 progress:   80.5%
 ccsd(t): done       63 out of       77 progress:   81.8%
 ccsd(t): done       64 out of       77 progress:   83.1%
 ccsd(t): done       65 out of       77 progress:   84.4%
 ccsd(t): done       66 out of       77 progress:   85.7%
 ccsd(t): done       67 out of       77 progress:   87.0%
 ccsd(t): done       68 out of       77 progress:   88.3%
 ccsd(t): done       69 out of       77 progress:   89.6%
 ccsd(t): done       70 out of       77 progress:   90.9%
 ccsd(t): done       71 out of       77 progress:   92.2%
 ccsd(t): done       72 out of       77 progress:   93.5%
 ccsd(t): done       73 out of       77 progress:   94.8%
 ccsd(t): done       74 out of       77 progress:   96.1%
 ccsd(t): done       75 out of       77 progress:   97.4%
 ccsd(t): done       76 out of       77 progress:   98.7%
 ccsd(t): done       77 out of       77 progress:  100.0%
 Time for integral evaluation pass     1        1.08
 Time for triples evaluation pass      1        1.55

 pseudo-e(mp4)  -0.57113131464089E-02
 pseudo-e(mp5)   0.40874890965535E-03
        e(t)    -0.53025642367535E-02

 --------------
 CCSD(T) Energy
 --------------
 Reference energy:                     -76.040768446378181

 CCSD corr. energy:                     -0.230097706610836
 T(CCSD) corr. energy:                  -0.005711313146409
 Total CCSD+T(CCSD) energy:            -76.276577466135421

 CCSD corr. energy:                     -0.230097706610836
 (T) corr. energy:                      -0.005302564236754
 Total CCSD(T) energy:                 -76.276168717225772

 routine      calls  cpu(0)   cpu-min  cpu-ave  cpu-max   i/o 
 aoccsd          1     0.00     0.00     0.00     0.00    0.00
 iterdrv         1     0.09     0.09     0.09     0.09    0.00
 pampt          14     0.03     0.03     0.03     0.03    0.00
 t2pm           14     0.05     0.05     0.05     0.05    0.00
 sxy            14     0.07     0.07     0.07     0.07    0.00
 ints       503863     1.39     1.39     1.39     1.39    0.00
 f_write      1482     0.95     0.95     0.95     0.95    0.00
 t2eri       10374     2.67     2.67     2.67     2.67    0.00
 idx2        10374     0.46     0.46     0.46     0.46    0.00
 idx34          14     0.04     0.04     0.04     0.04    0.00
 ht2pm          14     0.06     0.06     0.06     0.06    0.00
 itm            14     0.38     0.38     0.38     0.38    0.00
 pdiis          14     0.01     0.01     0.01     0.01    0.00
 r_read       9633     0.21     0.21     0.21     0.21    0.00
 triples         1     0.00     0.00     0.00     0.00    0.00
 rdtrpo          1     0.00     0.00     0.00     0.00    0.00
 trpmos          1     1.08     1.08     1.08     1.08    0.00
 trpdrv          1     0.11     0.11     0.11     0.11    0.00
 dovvv       11550     1.11     1.11     1.11     1.11    0.00
 doooo       11550     0.12     0.12     0.12     0.12    0.00
 tengy        9625     0.22     0.22     0.22     0.22    0.00
 Total                 9.02     9.02     9.02     9.02    0.00

 Task  times  cpu:       10.1s     wall:       10.1s
 Summary of allocated global arrays
-----------------------------------
  No active global arrays


MA_summarize_allocated_blocks: starting scan ...
MA_summarize_allocated_blocks: scan completed: 0 heap blocks, 0 stack blocks
MA usage statistics:

	allocation statistics:
					      heap	     stack
					      ----	     -----
	current number of blocks	         0	         0
	maximum number of blocks	        18	        42
	current total bytes		         0	         0
	maximum total bytes		  62938096	 377974120
	maximum total K-bytes		     62939	    377975
	maximum total M-bytes		        63	       378


                                NWChem Input Module
                                -------------------




                                     CITATION
                                     --------
                Please cite the following reference when publishing
                           results obtained with NWChem:

          E. Apra, E. J. Bylaska, W. A. de Jong, N. Govind, K. Kowalski,
       T. P. Straatsma, M. Valiev, H. J. J. van Dam, Y. Alexeev, J. Anchell,
       V. Anisimov, F. W. Aquino, R. Atta-Fynn, J. Autschbach, N. P. Bauman,
     J. C. Becca, D. E. Bernholdt, K. Bhaskaran-Nair, S. Bogatko, P. Borowski,
         J. Boschen, J. Brabec, A. Bruner, E. Cauet, Y. Chen, G. N. Chuev,
      C. J. Cramer, J. Daily, M. J. O. Deegan, T. H. Dunning Jr., M. Dupuis,
   K. G. Dyall, G. I. Fann, S. A. Fischer, A. Fonari, H. Fruchtl, L. Gagliardi,
      J. Garza, N. Gawande, S. Ghosh, K. Glaesemann, A. W. Gotz, J. Hammond,
       V. Helms, E. D. Hermes, K. Hirao, S. Hirata, M. Jacquelin, L. Jensen,
   B. G. Johnson, H. Jonsson, R. A. Kendall, M. Klemm, R. Kobayashi, V. Konkov,
      S. Krishnamoorthy, M. Krishnan, Z. Lin, R. D. Lins, R. J. Littlefield,
      A. J. Logsdail, K. Lopata, W. Ma, A. V. Marenich, J. Martin del Campo,
   D. Mejia-Rodriguez, J. E. Moore, J. M. Mullin, T. Nakajima, D. R. Nascimento,
    J. A. Nichols, P. J. Nichols, J. Nieplocha, A. Otero-de-la-Roza, B. Palmer,
    A. Panyala, T. Pirojsirikul, B. Peng, R. Peverati, J. Pittner, L. Pollack,
   R. M. Richard, P. Sadayappan, G. C. Schatz, W. A. Shelton, D. W. Silverstein,
   D. M. A. Smith, T. A. Soares, D. Song, M. Swart, H. L. Taylor, G. S. Thomas,
            V. Tipparaju, D. G. Truhlar, K. Tsemekhman, T. Van Voorhis,
      A. Vazquez-Mayagoitia, P. Verma, O. Villa, A. Vishnu, K. D. Vogiatzis,
        D. Wang, J. H. Weare, M. J. Williamson, T. L. Windus, K. Wolinski,
        A. T. Wong, Q. Wu, C. Yang, Q. Yu, M. Zacharias, Z. Zhang, Y. Zhao,
                                and R. J. Harrison
                        "NWChem: Past, present, and future
                         J. Chem. Phys. 152, 184102 (2020)
                               doi:10.1063/5.0004997

                                      AUTHORS
                                      -------
  E. Apra, E. J. Bylaska, N. Govind, K. Kowalski, M. Valiev, D. Mejia-Rodriguez,
       A. Kunitsa, N. P. Bauman, A. Panyala, W. A. de Jong, T. P. Straatsma,
   H. J. J. van Dam, D. Wang, T. L. Windus, J. Hammond, J. Autschbach, A. Woods,
    K. Bhaskaran-Nair, J. Brabec, K. Lopata, S. A. Fischer, S. Krishnamoorthy,
     M. Jacquelin, W. Ma, M. Klemm, O. Villa, Y. Chen, V. Anisimov, F. Aquino,
     S. Hirata, M. T. Hackler, E. Hermes, L. Jensen, J. E. Moore, J. C. Becca,
      V. Konjkov, T. Risthaus, M. Malagoli, A. Marenich, A. Otero-de-la-Roza,
        J. Mullin, P. Nichols, R. Peverati, J. Pittner, Y. Zhao, P.-D. Fan,
        A. Fonari, M. J. Williamson, R. J. Harrison, J. R. Rehr, M. Dupuis,
     D. Silverstein, D. M. A. Smith, J. Nieplocha, V. Tipparaju, M. Krishnan,
     B. E. Van Kuiken, A. Vazquez-Mayagoitia, M. Swart, Q. Wu, T. Van Voorhis,
     A. A. Auer, M. Nooijen, L. D. Crosby, E. Brown, G. Cisneros, G. I. Fann,
   H. Fruchtl, J. Garza, K. Hirao, R. A. Kendall, J. A. Nichols, K. Tsemekhman,
    K. Wolinski, J. Anchell, D. E. Bernholdt, P. Borowski, T. Clark, D. Clerc,
   H. Dachsel, M. J. O. Deegan, K. Dyall, D. Elwood, E. Glendening, M. Gutowski,
   A. C. Hess, J. Jaffe, B. G. Johnson, J. Ju, R. Kobayashi, R. Kutteh, Z. Lin,
   R. Littlefield, X. Long, B. Meng, T. Nakajima, S. Niu, L. Pollack, M. Rosing,
   K. Glaesemann, G. Sandrone, M. Stave, H. Taylor, G. Thomas, J. H. van Lenthe,
                               A. T. Wong, Z. Zhang.

 Total times  cpu:       10.4s     wall:       10.4s
