 argument  1 = /var/folders/v1/k9l8hql13n1gcrjl_yh_gs5m0000gn/T/tmphv_fzn6s/input_A_AB.txt
                                         
                                         


             Northwest Computational Chemistry Package (NWChem) 7.2.3
             --------------------------------------------------------


                    Environmental Molecular Sciences Laboratory
                       Pacific Northwest National Laboratory
                                Richland, WA 99352

                              Copyright (c) 1994-2022
                       Pacific Northwest National Laboratory
                            Battelle Memorial Institute

             NWChem is an open-source computational chemistry package
                        distributed under the terms of the
                      Educational Community License (ECL) 2.0
             A copy of the license is included with this distribution
                              in the LICENSE.TXT file

                                  ACKNOWLEDGMENT
                                  --------------

            This software and its documentation were developed at the
            EMSL at Pacific Northwest National Laboratory, a multiprogram
            national laboratory, operated for the U.S. Department of Energy
            by Battelle under Contract Number DE-AC05-76RL01830. Support
            for this work was provided by the Department of Energy Office
            of Biological and Environmental Research, Office of Basic
            Energy Sciences, and the Office of Advanced Scientific Computing.


           Job information
           ---------------

    hostname        = isufi.affiliate.iastate.edu
    program         = nwchem
    date            = Thu Jul  3 08:09:41 2025

    compiled        = Thu_Dec_26_16:03:44_2024
    source          = /private/tmp/nwchem-20241226-24280-orrtsi/nwchem-7.2.3
    nwchem branch   = 7.2.3
    nwchem revision = d690e065
    ga revision     = 5.8.0
    use scalapack   = T
    input           = /var/folders/v1/k9l8hql13n1gcrjl_yh_gs5m0000gn/T/tmphv_fzn6s/input_A_AB.txt
    prefix          = input_A_AB.
    data base       = ./input_A_AB.db
    status          = restart
    nproc           =        8
    time left       =     -1s



           Memory information
           ------------------

    heap     =  536870908 doubles =   4096.0 Mbytes
    stack    =  536870913 doubles =   4096.0 Mbytes
    global   = 1073741824 doubles =   8192.0 Mbytes (distinct from heap & stack)
    total    = 2147483645 doubles =  16384.0 Mbytes
    verify   = yes
    hardfail = no 


           Directory information
           ---------------------

  0 permanent = .
  0 scratch   = .


           Previous task information
           -------------------------

    Theory    = ccsd(t)                         
    Operation = energy                        
    Status    = ok                            
    Qmmm      = F
    Ignore    = F


           Geometries in the database
           --------------------------

       Name                              Natoms  Last Modified
       --------------------------------  ------  ------------------------
    1  geometry                               4  Thu Jul  3 08:09:21 2025  

  The geometry named "geometry" is the default for restart



           Basis sets in the database
           --------------------------

       Name                              Natoms  Last Modified
        --------------------------------  ------  ------------------------
    1  ao basis                               4  Thu Jul  3 08:09:21 2025  

  The basis set named "ao basis" is the default AO basis for restart




                                NWChem Input Module
                                -------------------



 Scaling coordinates for geometry "geometry" by  1.889725989
 (inverse scale =  0.529177249)

  zeroes
  zeroes
  zeroes
  zeroes
  zeroes
  zeroes
  zeroes
  zeroes
  zeroes
  zeroes
  zeroes
  zeroes
  zeroes
  zeroes
  zeroes
  zeroes
  zeroes
  zeroes
  zeroes
  zeroes
  zeroes
  zeroes
  zeroes
  zeroes
  zeroes
  zeroes
  zeroes
  zeroes
  zeroes
  zeroes
  zeroes
  zeroes
  zeroes
  zeroes
  zeroes
  zeroes
  zeroes
  zeroes
  zeroes
  zeroes
  zeroes
  zeroes
  zeroes
  zeroes
  zeroes
  zeroes
  zeroes
  zeroes
  zeroes
  zeroes
  zeroes
  zeroes
  zeroes
  zeroes
  zeroes
  zeroes
  zeroes
  zeroes
  zeroes
  zeroes
  zeroes
  zeroes
  zeroes
  zeroes
  zeroes
  zeroes
  zeroes
  zeroes
  zeroes
  zeroes
  zeroes
  zeroes
  zeroes
  zeroes
  zeroes
  zeroes
  zeroes
  zeroes
  zeroes
  zeroes
  zeroes
  zeroes
  zeroes
  zeroes
  zeroes
  zeroes
  zeroes
  zeroes
  zeroes
  zeroes
  zeroes
  zeroes
  zeroes
  zeroes
  zeroes
  zeroes
 ORDER OF PRIMARY AXIS IS BEING SET TO 4
 C4V symmetry detected


                             Geometry "geometry" -> ""
                             -------------------------

 Output coordinates in angstroms (scale by  1.889725989 to convert to a.u.)

  No.       Tag          Charge          X              Y              Z
 ---- ---------------- ---------- -------------- -------------- --------------
    1 H                    1.0000     0.00000000     0.00000000    -0.83160000
    2 F                    9.0000     0.00000000     0.00000000     0.09240000
    3 bqH                  0.0000     0.00000000     0.00000000     2.41840000
    4 bqF                  0.0000     0.00000000     0.00000000     3.34240000

      Atomic Mass 
      ----------- 

      H                  1.007825
      F                 18.998400


 Effective nuclear repulsion energy (a.u.)       5.1543238539

            Nuclear Dipole moment (a.u.) 
            ----------------------------
        X                 Y               Z
 ---------------- ---------------- ----------------
     0.0000000000     0.0000000000     0.0000000000

      Symmetry information
      --------------------

 Group name             C4v       
 Group number             18
 Group order               8
 No. of unique centers     4

      Symmetry unique atoms

     1    2    3    4


            XYZ format geometry
            -------------------
     4
 geometry
 H                     0.00000000     0.00000000    -0.83160000
 F                     0.00000000     0.00000000     0.09240000
 bqH                   0.00000000     0.00000000     2.41840000
 bqF                   0.00000000     0.00000000     3.34240000

 ==============================================================================
                                internuclear distances
 ------------------------------------------------------------------------------
       center one      |      center two      | atomic units |  angstroms
 ------------------------------------------------------------------------------
    2 F                |   1 H                |     1.74611  |     0.92400
    3 bqH              |   2 F                |     4.39550  |     2.32600
    4 bqF              |   3 bqH              |     1.74611  |     0.92400
 ------------------------------------------------------------------------------
                         number of included internuclear distances:          3
 ==============================================================================



 ==============================================================================
                                 internuclear angles
 ------------------------------------------------------------------------------
        center 1       |       center 2       |       center 3       |  degrees
 ------------------------------------------------------------------------------
    1 H                |   2 F                |   3 bqH              |   180.00
    2 F                |   3 bqH              |   4 bqF              |   180.00
 ------------------------------------------------------------------------------
                            number of included internuclear angles:          2
 ==============================================================================



  library name resolved from: environment
  library file name is: </opt/homebrew/Caskroom/mambaforge/base/envs/ames/share/nwchem/libraries/>
  
                      Basis "ao basis" -> "" (spherical)
                      -----
  H (Hydrogen)
  ------------
            Exponent  Coefficients 
       -------------- ---------------------------------------------------------
  1 S  1.30100000E+01  0.019685
  1 S  1.96200000E+00  0.137977
  1 S  4.44600000E-01  0.478148

  2 S  1.22000000E-01  1.000000

  3 S  2.97400000E-02  1.000000

  4 P  7.27000000E-01  1.000000

  5 P  1.41000000E-01  1.000000

  F (Fluorine)
  ------------
            Exponent  Coefficients 
       -------------- ---------------------------------------------------------
  1 S  1.47100000E+04  0.000721
  1 S  2.20700000E+03  0.005553
  1 S  5.02800000E+02  0.028267
  1 S  1.42600000E+02  0.106444
  1 S  4.64700000E+01  0.286814
  1 S  1.67000000E+01  0.448641
  1 S  6.35600000E+00  0.264761
  1 S  1.31600000E+00  0.015333

  2 S  1.47100000E+04 -0.000165
  2 S  2.20700000E+03 -0.001308
  2 S  5.02800000E+02 -0.006495
  2 S  1.42600000E+02 -0.026691
  2 S  4.64700000E+01 -0.073690
  2 S  1.67000000E+01 -0.170776
  2 S  6.35600000E+00 -0.112327
  2 S  1.31600000E+00  0.562814

  3 S  3.89700000E-01  1.000000

  4 S  9.86300000E-02  1.000000

  5 P  2.26700000E+01  0.044878
  5 P  4.97700000E+00  0.235718
  5 P  1.34700000E+00  0.508521

  6 P  3.47100000E-01  1.000000

  7 P  8.50200000E-02  1.000000

  8 D  1.64000000E+00  1.000000

  9 D  4.64000000E-01  1.000000

  bqH
  ---
            Exponent  Coefficients 
       -------------- ---------------------------------------------------------
  1 S  1.30100000E+01  0.019685
  1 S  1.96200000E+00  0.137977
  1 S  4.44600000E-01  0.478148

  2 S  1.22000000E-01  1.000000

  3 S  2.97400000E-02  1.000000

  4 P  7.27000000E-01  1.000000

  5 P  1.41000000E-01  1.000000

  bqF
  ---
            Exponent  Coefficients 
       -------------- ---------------------------------------------------------
  1 S  1.47100000E+04  0.000721
  1 S  2.20700000E+03  0.005553
  1 S  5.02800000E+02  0.028267
  1 S  1.42600000E+02  0.106444
  1 S  4.64700000E+01  0.286814
  1 S  1.67000000E+01  0.448641
  1 S  6.35600000E+00  0.264761
  1 S  1.31600000E+00  0.015333

  2 S  1.47100000E+04 -0.000165
  2 S  2.20700000E+03 -0.001308
  2 S  5.02800000E+02 -0.006495
  2 S  1.42600000E+02 -0.026691
  2 S  4.64700000E+01 -0.073690
  2 S  1.67000000E+01 -0.170776
  2 S  6.35600000E+00 -0.112327
  2 S  1.31600000E+00  0.562814

  3 S  3.89700000E-01  1.000000

  4 S  9.86300000E-02  1.000000

  5 P  2.26700000E+01  0.044878
  5 P  4.97700000E+00  0.235718
  5 P  1.34700000E+00  0.508521

  6 P  3.47100000E-01  1.000000

  7 P  8.50200000E-02  1.000000

  8 D  1.64000000E+00  1.000000

  9 D  4.64000000E-01  1.000000



 Summary of "ao basis" -> "" (spherical)
 ------------------------------------------------------------------------------
       Tag                 Description            Shells   Functions and Types
 ---------------- ------------------------------  ------  ---------------------
 H                        aug-cc-pvdz                5        9   3s2p
 F                        aug-cc-pvdz                9       23   4s3p2d
 bqH                      aug-cc-pvdz                5        9   3s2p
 bqF                      aug-cc-pvdz                9       23   4s3p2d


                                 NWChem SCF Module
                                 -----------------



  ao basis        = "ao basis"
  functions       =    64
  atoms           =     4
  closed shells   =     5
  open shells     =     0
  charge          =   0.00
  wavefunction    = RHF 
  input vectors   = ./input_A_AB.movecs
  output vectors  = ./input_A_AB.movecs
  use symmetry    = T
  symmetry adapt  = T


 Summary of "ao basis" -> "ao basis" (spherical)
 ------------------------------------------------------------------------------
       Tag                 Description            Shells   Functions and Types
 ---------------- ------------------------------  ------  ---------------------
 H                        aug-cc-pvdz                5        9   3s2p
 F                        aug-cc-pvdz                9       23   4s3p2d
 bqH                      aug-cc-pvdz                5        9   3s2p
 bqF                      aug-cc-pvdz                9       23   4s3p2d


      Symmetry analysis of basis
      --------------------------

        a1         28
        a2          0
        b1          4
        b2          4
        e          28


 Forming initial guess at       0.1s


 Loading old vectors from job with title :




      Symmetry analysis of molecular orbitals - initial
      -------------------------------------------------

  Numbering of irreducible representations: 

     1 a1          2 a2          3 b1          4 b2          5 e       

  Orbital symmetries:

     1 a1          2 a1          3 a1          4 e           5 e       
     6 a1          7 a1          8 e           9 e          10 a1      
    11 a1         12 a1         13 e          14 e          15 a1      


 Starting SCF solution at       0.1s



 ----------------------------------------------
         Quadratically convergent ROHF

 Convergence threshold     :          1.000E-06
 Maximum no. of iterations :           30
 Final Fock-matrix accuracy:          1.000E-08
 ----------------------------------------------


 Integral file          = ./input_A_AB.aoints.0
 Record size in doubles =  65536        No. of integs per rec  =  43688
 Max. records in memory =      4        Max. records in file   =   3905
 No. of bits per label  =      8        No. of bits per value  =     64


 #quartets = 7.316D+04 #integrals = 4.480D+05 #direct =  0.0% #cached =100.0%


File balance: exchanges=     0  moved=     0  time=   0.0


              iter       energy          gnorm     gmax       time
             ----- ------------------- --------- --------- --------
                 1     -100.0327248099  1.13D-01  5.20D-02      0.2
                 2     -100.0334121014  4.06D-03  1.75D-03      0.2
                 3     -100.0334135515  6.17D-06  1.81D-06      0.3
                 4     -100.0334135515  1.24D-08  4.04D-09      0.4


       Final RHF  results 
       ------------------ 

         Total SCF energy =   -100.033413551518
      One-electron energy =   -150.406839132810
      Two-electron energy =     45.219101727399
 Nuclear repulsion energy =      5.154323853893

        Time for solution =      0.3s



       Symmetry analysis of molecular orbitals - final
       -----------------------------------------------

  Numbering of irreducible representations: 

     1 a1          2 a2          3 b1          4 b2          5 e       

  Orbital symmetries:

     1 a1          2 a1          3 a1          4 e           5 e       
     6 a1          7 a1          8 e           9 e          10 a1      
    11 a1         12 a1         13 e          14 e          15 a1      

             Final eigenvalues
             -----------------

              1      
    1  -26.3109
    2   -1.6051
    3   -0.7685
    4   -0.6499
    5   -0.6499
    6    0.0343
    7    0.0573
    8    0.1948
    9    0.1948
   10    0.1975
   11    0.2043
   12    0.2166
   13    0.2661
   14    0.2661
   15    0.3622

                       ROHF Final Molecular Orbital Analysis
                       -------------------------------------

 Vector    2  Occ=2.000000D+00  E=-1.605070D+00  Symmetry=a1
              MO Center=  1.0D-19,  4.7D-20, -2.0D-02, r^2= 3.7D-01
   Bfn.  Coefficient  Atom+Function         Bfn.  Coefficient  Atom+Function  
  ----- ------------  ---------------      ----- ------------  ---------------
    11      0.486836  2 F  s                 12      0.479275  2 F  s          
     1      0.198515  1 H  s                  2     -0.160815  1 H  s          

 Vector    3  Occ=2.000000D+00  E=-7.684920D-01  Symmetry=a1
              MO Center= -2.7D-18, -1.4D-18, -4.8D-03, r^2= 5.8D-01
   Bfn.  Coefficient  Atom+Function         Bfn.  Coefficient  Atom+Function  
  ----- ------------  ---------------      ----- ------------  ---------------
    16      0.562123  2 F  pz                 1     -0.407941  1 H  s          
    19      0.271134  2 F  pz                12      0.251596  2 F  s          

 Vector    4  Occ=2.000000D+00  E=-6.499078D-01  Symmetry=e
              MO Center=  9.3D-19,  1.6D-18,  6.8D-02, r^2= 4.8D-01
   Bfn.  Coefficient  Atom+Function         Bfn.  Coefficient  Atom+Function  
  ----- ------------  ---------------      ----- ------------  ---------------
    15      0.654998  2 F  py                18      0.439953  2 F  py         

 Vector    5  Occ=2.000000D+00  E=-6.499078D-01  Symmetry=e
              MO Center= -2.9D-18,  5.1D-19,  6.8D-02, r^2= 4.8D-01
   Bfn.  Coefficient  Atom+Function         Bfn.  Coefficient  Atom+Function  
  ----- ------------  ---------------      ----- ------------  ---------------
    14      0.654998  2 F  px                17      0.439953  2 F  px         

 Vector    6  Occ=0.000000D+00  E= 3.434238D-02  Symmetry=a1
              MO Center=  2.2D-15, -1.5D-15, -1.3D+00, r^2= 9.3D+00
   Bfn.  Coefficient  Atom+Function         Bfn.  Coefficient  Atom+Function  
  ----- ------------  ---------------      ----- ------------  ---------------
    13     -1.492346  2 F  s                  3      1.438486  1 H  s          
     2      1.116631  1 H  s                 22      0.539799  2 F  pz         
     9      0.233458  1 H  pz         

 Vector    7  Occ=0.000000D+00  E= 5.729624D-02  Symmetry=a1
              MO Center=  8.7D-17, -9.6D-17,  2.8D+00, r^2= 1.3D+01
   Bfn.  Coefficient  Atom+Function         Bfn.  Coefficient  Atom+Function  
  ----- ------------  ---------------      ----- ------------  ---------------
    35      1.754095  3 bq s                 45     -1.239380  4 bq s          
    34      0.953002  3 bq s                  3     -0.921913  1 H  s          
     2     -0.616978  1 H  s                 22     -0.524049  2 F  pz         
    13      0.516092  2 F  s                 54      0.427012  4 bq pz         
    41      0.186589  3 bq pz         

 Vector    8  Occ=0.000000D+00  E= 1.947650D-01  Symmetry=e
              MO Center= -1.9D-15,  1.9D-15,  2.8D+00, r^2= 6.4D+00
   Bfn.  Coefficient  Atom+Function         Bfn.  Coefficient  Atom+Function  
  ----- ------------  ---------------      ----- ------------  ---------------
    52      0.777986  4 bq px                53     -0.770590  4 bq py         
    20      0.437245  2 F  px                21     -0.433088  2 F  py         
    39     -0.231516  3 bq px                40      0.229316  3 bq py         

 Vector    9  Occ=0.000000D+00  E= 1.947650D-01  Symmetry=e
              MO Center= -3.8D-16, -3.9D-16,  2.8D+00, r^2= 6.4D+00
   Bfn.  Coefficient  Atom+Function         Bfn.  Coefficient  Atom+Function  
  ----- ------------  ---------------      ----- ------------  ---------------
    53      0.777986  4 bq py                52      0.770590  4 bq px         
    21      0.437245  2 F  py                20      0.433088  2 F  px         
    40     -0.231516  3 bq py                39     -0.229316  3 bq px         

 Vector   10  Occ=0.000000D+00  E= 1.975261D-01  Symmetry=a1
              MO Center=  1.0D-17,  2.6D-17, -1.0D+00, r^2= 7.5D+00
   Bfn.  Coefficient  Atom+Function         Bfn.  Coefficient  Atom+Function  
  ----- ------------  ---------------      ----- ------------  ---------------
    13      4.377383  2 F  s                  2     -3.345296  1 H  s          
    22     -2.106668  2 F  pz                45      1.514529  4 bq s          
     3     -1.465409  1 H  s                  9     -1.343493  1 H  pz         
    34     -0.678971  3 bq s                 54     -0.603821  4 bq pz         
    41     -0.521040  3 bq pz                16      0.194893  2 F  pz         

 Vector   11  Occ=0.000000D+00  E= 2.043017D-01  Symmetry=a1
              MO Center=  3.0D-17,  4.3D-18,  3.5D+00, r^2= 6.4D+00
   Bfn.  Coefficient  Atom+Function         Bfn.  Coefficient  Atom+Function  
  ----- ------------  ---------------      ----- ------------  ---------------
    34      2.720839  3 bq s                 45     -2.180670  4 bq s          
    54      1.984263  4 bq pz                13     -0.289656  2 F  s          
    41      0.252957  3 bq pz                22     -0.229948  2 F  pz         
     3      0.176024  1 H  s          

 Vector   12  Occ=0.000000D+00  E= 2.165842D-01  Symmetry=a1
              MO Center=  2.3D-18, -2.5D-18,  2.6D+00, r^2= 9.3D+00
   Bfn.  Coefficient  Atom+Function         Bfn.  Coefficient  Atom+Function  
  ----- ------------  ---------------      ----- ------------  ---------------
    45      3.784404  4 bq s                 34     -2.320650  3 bq s          
    13     -2.248135  2 F  s                  2      2.146640  1 H  s          
    35     -1.702325  3 bq s                 22      1.403979  2 F  pz         
     3      0.980841  1 H  s                 54     -0.686713  4 bq pz         
    41     -0.627299  3 bq pz                 9      0.508583  1 H  pz         

 Vector   13  Occ=0.000000D+00  E= 2.661247D-01  Symmetry=e
              MO Center=  6.2D-16, -7.1D-16,  8.4D-01, r^2= 7.2D+00
   Bfn.  Coefficient  Atom+Function         Bfn.  Coefficient  Atom+Function  
  ----- ------------  ---------------      ----- ------------  ---------------
    21      0.816239  2 F  py                20     -0.718614  2 F  px         
    53     -0.504043  4 bq py                52      0.443758  4 bq px         
    18     -0.245917  2 F  py                17      0.216504  2 F  px         

 Vector   14  Occ=0.000000D+00  E= 2.661247D-01  Symmetry=e
              MO Center= -5.6D-17, -4.9D-17,  8.4D-01, r^2= 7.2D+00
   Bfn.  Coefficient  Atom+Function         Bfn.  Coefficient  Atom+Function  
  ----- ------------  ---------------      ----- ------------  ---------------
    20      0.816239  2 F  px                21      0.718614  2 F  py         
    52     -0.504043  4 bq px                53     -0.443758  4 bq py         
    17     -0.245917  2 F  px                18     -0.216504  2 F  py         

 Vector   15  Occ=0.000000D+00  E= 3.622229D-01  Symmetry=a1
              MO Center= -4.7D-16,  9.5D-16,  1.0D+00, r^2= 6.4D+00
   Bfn.  Coefficient  Atom+Function         Bfn.  Coefficient  Atom+Function  
  ----- ------------  ---------------      ----- ------------  ---------------
    13      4.467674  2 F  s                 34      3.681262  3 bq s          
     2     -3.357748  1 H  s                 45     -3.356540  4 bq s          
    54      1.629395  4 bq pz                41      1.096657  3 bq pz         
    22     -0.531398  2 F  pz                 9     -0.485901  1 H  pz         
    19     -0.454259  2 F  pz                12     -0.399582  2 F  s          

 Vector   16  Occ=0.000000D+00  E= 3.886292D-01  Symmetry=a1
              MO Center= -1.6D-16, -1.1D-16,  7.7D-01, r^2= 9.0D+00
   Bfn.  Coefficient  Atom+Function         Bfn.  Coefficient  Atom+Function  
  ----- ------------  ---------------      ----- ------------  ---------------
     2      7.039226  1 H  s                 13     -5.639896  2 F  s          
    22      4.849574  2 F  pz                45     -4.746872  4 bq s          
    34      3.665120  3 bq s                 54      2.138372  4 bq pz         
    41      1.450264  3 bq pz                 3      0.823803  1 H  s          
     9      0.336641  1 H  pz                12     -0.269722  2 F  s          

 Vector   17  Occ=0.000000D+00  E= 4.021733D-01  Symmetry=e
              MO Center= -2.3D-17, -2.5D-17, -7.5D-02, r^2= 5.5D+00
   Bfn.  Coefficient  Atom+Function         Bfn.  Coefficient  Atom+Function  
  ----- ------------  ---------------      ----- ------------  ---------------
     8      1.107855  1 H  py                 7      0.998750  1 H  px         
    21     -0.686942  2 F  py                20     -0.619289  2 F  px         
    40     -0.421128  3 bq py                53      0.414414  4 bq py         
    39     -0.379654  3 bq px                52      0.373602  4 bq px         
    18     -0.166975  2 F  py                17     -0.150531  2 F  px         

 Vector   18  Occ=0.000000D+00  E= 4.021733D-01  Symmetry=e
              MO Center=  1.1D-17, -9.5D-18, -7.5D-02, r^2= 5.5D+00
   Bfn.  Coefficient  Atom+Function         Bfn.  Coefficient  Atom+Function  
  ----- ------------  ---------------      ----- ------------  ---------------
     7      1.107855  1 H  px                 8     -0.998750  1 H  py         
    20     -0.686942  2 F  px                21      0.619289  2 F  py         
    39     -0.421128  3 bq px                52      0.414414  4 bq px         
    40      0.379654  3 bq py                53     -0.373602  4 bq py         
    17     -0.166975  2 F  px                18      0.150531  2 F  py         

 Vector   19  Occ=0.000000D+00  E= 5.376669D-01  Symmetry=a1
              MO Center= -3.6D-17,  2.6D-17,  2.1D+00, r^2= 6.2D+00
   Bfn.  Coefficient  Atom+Function         Bfn.  Coefficient  Atom+Function  
  ----- ------------  ---------------      ----- ------------  ---------------
    34      6.725983  3 bq s                 45     -5.377490  4 bq s          
    22     -3.024401  2 F  pz                 2     -2.811335  1 H  s          
    54      1.535529  4 bq pz                35      1.039973  3 bq s          
    13      0.934295  2 F  s                  3     -0.499786  1 H  s          
    12      0.422707  2 F  s                 51      0.358082  4 bq pz         


 center of mass
 --------------
 x =   0.00000000 y =   0.00000000 z =   0.08664955

 moments of inertia (a.u.)
 ------------------
           2.917955199123           0.000000000000           0.000000000000
           0.000000000000           2.917955199123           0.000000000000
           0.000000000000           0.000000000000           0.000000000000

  Mulliken analysis of the total density
  --------------------------------------

    Atom       Charge   Shell Charges
 -----------   ------   -------------------------------------------------------
    1 H    1     0.56   0.67 -0.21 -0.01  0.10  0.01
    2 F    9     9.45   2.00  0.90  0.95  0.17  3.32  1.92  0.19  0.00 -0.01
    3 X    0    -0.00   0.00  0.00  0.00  0.00 -0.01
    4 X    0    -0.00   0.00  0.00 -0.00 -0.00  0.00  0.00 -0.00  0.00  0.00

       Multipole analysis of the density wrt the origin
       ------------------------------------------------

     L   x y z        total         open         nuclear
     -   - - -        -----         ----         -------
     0   0 0 0     -0.000000      0.000000     10.000000

     1   1 0 0      0.000000      0.000000      0.000000
     1   0 1 0     -0.000000      0.000000      0.000000
     1   0 0 1     -0.765332      0.000000      0.000000

     2   2 0 0     -4.264432      0.000000      0.000000
     2   1 1 0      0.000000      0.000000      0.000000
     2   1 0 1     -0.000000      0.000000      0.000000
     2   0 2 0     -4.264432      0.000000      0.000000
     2   0 1 1     -0.000000      0.000000      0.000000
     2   0 0 2     -2.627767      0.000000      2.744000


 Parallel integral file used      12 records with       0 large values

 CCSD: Non-Abelian Symmetry Not Permitted
       Symmetry has been lowered to C1
  


                   Four-Index Transformation
                   -------------------------
          Number of basis functions:             64
          Number of shells:                      28
          Number of occupied orbitals:            5
          Number of occ. correlated orbitals:     5
          Block length:                          16
          Superscript MO index range:      1 -    5
          Subscript MO index range:        1 -   64
          MO coefficients read from:  ./input_A_AB.movecs      
          Number of operator matrices in core:   30
          Half-transformed integrals produced

     Pass:    1     Index range:    1  -    5     Time:      0.35
 ------------------------------------------
 MP2 Energy (coupled cluster initial guess)
 ------------------------------------------
 Reference energy:           -100.033413551517910
 MP2 Corr. energy:             -0.225096051852034
 Total MP2 energy:           -100.258509603369944


 ****************************************************************************
              the segmented parallel ccsd program:    8 nodes
 ****************************************************************************




 level of theory    ccsd(t)
 number of core         0
 number of occupied     5
 number of virtual     59
 number of deleted      0
 total functions       64
 number of shells      28
 basis label          566



   ***** ccsd parameters *****
   iprt   =     0
   convi  =  0.100E-05
   maxit  =    20
   mxvec  =     5
 memory           1073735052
  Using  1 OpenMP thread(s) in CCSD
  avail0,avail1,avail0-avail1                 16433                16433                    0
  avail0,avail1,avail0-avail1                 16433                16433                    0
  avail0,avail1,avail0-avail1                 16433                16448                  -15
  avail0,avail1,avail0-avail1                 16433                16448                  -15
  Restarting from old vector in ./input_A_AB.t2


-------------------------------------------------------------------------
 iter     correlation     delta       rms       T2     Non-T2      Main
             energy      energy      error      ampl     ampl      Block
                                                time     time      time
-------------------------------------------------------------------------
   1     -0.2266914477 -2.267D-01  5.906D-02     0.76     0.00     0.69
   2     -0.2259281061  7.633D-04  5.733D-02     0.15     0.00     0.08
   3     -0.2281547594 -2.227D-03  1.637D-02     0.15     0.00     0.08
   4     -0.2283618877 -2.071D-04  1.124D-02     0.14     0.00     0.09
   5     -0.2284873330 -1.254D-04  2.387D-03     0.16     0.00     0.08
   6     -0.2285258787 -3.855D-05  1.070D-03     0.15     0.00     0.09
   7     -0.2285277447 -1.866D-06  2.626D-04     0.13     0.00     0.08
   8     -0.2285278886 -1.439D-07  9.095D-06     0.12     0.00     0.08
   9     -0.2285282088 -3.202D-07  2.504D-05     0.13     0.00     0.09
  10     -0.2285277475  4.612D-07  9.691D-06     0.12     0.00     0.08
  11     -0.2285278365 -8.893D-08  4.546D-06     0.12     0.00     0.08
  12     -0.2285278103  2.613D-08  1.148D-06     0.14     0.00     0.08
  13     -0.2285278025  7.855D-09  7.245D-07     0.13     0.00     0.09
                  *************converged*************
-------------------------------------------------------------------------

 -----------
 CCSD Energy
 -----------
 Reference energy:            -100.033413551517910
 CCSD corr. energy:             -0.228527802492471
 Total CCSD energy:           -100.261941354010375


 --------------------------------
 Spin Component Scaled (SCS) CCSD
 --------------------------------
 Same spin contribution:                 -0.053671804072107
 Same spin scaling factor:                1.130000000000000
 Opposite spin contribution:             -0.174855998420364
 Opposite spin scaling fact.:             1.270000000000000
 SCS-CCSD correlation energy:            -0.282716256595344
 Total SCS-CCSD energy:                -100.316129808113246
 memory           1073735052


*********triples calculation*********

nkpass=    1; nvpass=    1; memdrv=         102955; memtrn=         863598; memavail=     1073734740
 memory available/node                     1073734740
 total number of virtual orbitals        59
 number of virtuals per integral pass    59
 number of integral evaluations           1
 number of occupied per triples pass      5
 number of triples passes                 1

 commencing integral evaluation        1 at           3.36
  symmetry use  F
task         2 out of       406 done   0%  at       0.0 secs
task        22 out of       406 done   5%  at       0.1 secs
task        46 out of       406 done  11%  at       0.1 secs
task        67 out of       406 done  16%  at       0.1 secs
task        84 out of       406 done  20%  at       0.2 secs
task       110 out of       406 done  27%  at       0.2 secs
task       128 out of       406 done  31%  at       0.3 secs
task       146 out of       406 done  35%  at       0.3 secs
task       163 out of       406 done  40%  at       0.3 secs
task       183 out of       406 done  45%  at       0.4 secs
task       205 out of       406 done  50%  at       0.4 secs
task       227 out of       406 done  55%  at       0.4 secs
task       245 out of       406 done  60%  at       0.4 secs
task       266 out of       406 done  65%  at       0.5 secs
task       290 out of       406 done  71%  at       0.5 secs
task       313 out of       406 done  77%  at       0.6 secs
task       326 out of       406 done  80%  at       0.6 secs
task       348 out of       406 done  85%  at       0.6 secs
task       370 out of       406 done  91%  at       0.7 secs
task       391 out of       406 done  96%  at       0.7 secs
task       407 out of       406 done 100%  at       0.7 secs
 commencing triples evaluation - blocking       1
 ccsd(t): done        1 out of       59 progress:    1.7%
 ccsd(t): done        2 out of       59 progress:    3.4%
 ccsd(t): done        3 out of       59 progress:    5.1%
 ccsd(t): done        4 out of       59 progress:    6.8%
 ccsd(t): done        5 out of       59 progress:    8.5%
 ccsd(t): done        6 out of       59 progress:   10.2%
 ccsd(t): done        7 out of       59 progress:   11.9%
 ccsd(t): done        8 out of       59 progress:   13.6%
 ccsd(t): done        9 out of       59 progress:   15.3%
 ccsd(t): done       10 out of       59 progress:   16.9%
 ccsd(t): done       11 out of       59 progress:   18.6%
 ccsd(t): done       12 out of       59 progress:   20.3%
 ccsd(t): done       13 out of       59 progress:   22.0%
 ccsd(t): done       14 out of       59 progress:   23.7%
 ccsd(t): done       15 out of       59 progress:   25.4%
 ccsd(t): done       16 out of       59 progress:   27.1%
 ccsd(t): done       17 out of       59 progress:   28.8%
 ccsd(t): done       18 out of       59 progress:   30.5%
 ccsd(t): done       19 out of       59 progress:   32.2%
 ccsd(t): done       20 out of       59 progress:   33.9%
 ccsd(t): done       21 out of       59 progress:   35.6%
 ccsd(t): done       22 out of       59 progress:   37.3%
 ccsd(t): done       23 out of       59 progress:   39.0%
 ccsd(t): done       24 out of       59 progress:   40.7%
 ccsd(t): done       25 out of       59 progress:   42.4%
 ccsd(t): done       26 out of       59 progress:   44.1%
 ccsd(t): done       27 out of       59 progress:   45.8%
 ccsd(t): done       28 out of       59 progress:   47.5%
 ccsd(t): done       29 out of       59 progress:   49.2%
 ccsd(t): done       30 out of       59 progress:   50.8%
 ccsd(t): done       31 out of       59 progress:   52.5%
 ccsd(t): done       32 out of       59 progress:   54.2%
 ccsd(t): done       33 out of       59 progress:   55.9%
 ccsd(t): done       34 out of       59 progress:   57.6%
 ccsd(t): done       35 out of       59 progress:   59.3%
 ccsd(t): done       36 out of       59 progress:   61.0%
 ccsd(t): done       37 out of       59 progress:   62.7%
 ccsd(t): done       38 out of       59 progress:   64.4%
 ccsd(t): done       39 out of       59 progress:   66.1%
 ccsd(t): done       40 out of       59 progress:   67.8%
 ccsd(t): done       41 out of       59 progress:   69.5%
 ccsd(t): done       42 out of       59 progress:   71.2%
 ccsd(t): done       43 out of       59 progress:   72.9%
 ccsd(t): done       44 out of       59 progress:   74.6%
 ccsd(t): done       45 out of       59 progress:   76.3%
 ccsd(t): done       46 out of       59 progress:   78.0%
 ccsd(t): done       47 out of       59 progress:   79.7%
 ccsd(t): done       48 out of       59 progress:   81.4%
 ccsd(t): done       49 out of       59 progress:   83.1%
 ccsd(t): done       50 out of       59 progress:   84.7%
 ccsd(t): done       51 out of       59 progress:   86.4%
 ccsd(t): done       52 out of       59 progress:   88.1%
 ccsd(t): done       53 out of       59 progress:   89.8%
 ccsd(t): done       54 out of       59 progress:   91.5%
 ccsd(t): done       55 out of       59 progress:   93.2%
 ccsd(t): done       56 out of       59 progress:   94.9%
 ccsd(t): done       57 out of       59 progress:   96.6%
 ccsd(t): done       58 out of       59 progress:   98.3%
 ccsd(t): done       59 out of       59 progress:  100.0%
 Time for integral evaluation pass     1        0.75
 Time for triples evaluation pass      1        0.37

 pseudo-e(mp4)  -0.48051313435314E-02
 pseudo-e(mp5)   0.59699314479420E-03
        e(t)    -0.42081381987372E-02

 --------------
 CCSD(T) Energy
 --------------
 Reference energy:                    -100.033413551517910

 CCSD corr. energy:                     -0.228527802492471
 T(CCSD) corr. energy:                  -0.004805131343531
 Total CCSD+T(CCSD) energy:           -100.266746485353906

 CCSD corr. energy:                     -0.228527802492471
 (T) corr. energy:                      -0.004208138198737
 Total CCSD(T) energy:                -100.266149492209124

 routine      calls  cpu(0)   cpu-min  cpu-ave  cpu-max   i/o 
 aoccsd          1     0.01     0.01     0.01     0.01    0.00
 iterdrv         1     0.09     0.09     0.09     0.09    0.00
 pampt          13     0.06     0.06     0.06     0.06    0.00
 t2pm           13     0.10     0.10     0.10     0.10    0.00
 sxy            13     0.17     0.06     0.13     0.18    0.00
 ints        20577     0.18     0.16     0.17     0.20    0.00
 f_write       102     0.01     0.01     0.02     0.02    0.00
 t2eri         663     0.29     0.24     0.27     0.29    0.00
 idx2          663     0.98     0.98     1.06     1.15    0.00
 idx34          13     0.01     0.00     0.01     0.01    0.00
 ht2pm          13     0.05     0.05     0.05     0.05    0.00
 itm            13     0.51     0.51     0.51     0.51    0.00
 pdiis          13     0.00     0.00     0.00     0.00    0.00
 r_read        612     0.04     0.02     0.03     0.04    0.00
 triples         1     0.00     0.00     0.00     0.00    0.00
 rdtrpo          1     0.00     0.00     0.00     0.00    0.00
 trpmos          1     0.75     0.75     0.75     0.75    0.00
 trpdrv          1     0.23     0.21     0.22     0.23    0.00
 dovvv        1110     0.10     0.10     0.11     0.12    0.00
 doooo        1110     0.01     0.01     0.01     0.02    0.00
 tengy         925     0.03     0.03     0.03     0.03    0.00
 Total                 3.62     3.62     3.62     3.62    0.00

 Task  times  cpu:        4.4s     wall:        4.4s


                                NWChem Input Module
                                -------------------


 Summary of allocated global arrays
-----------------------------------
  No active global arrays


MA_summarize_allocated_blocks: starting scan ...
MA_summarize_allocated_blocks: scan completed: 0 heap blocks, 0 stack blocks
MA usage statistics:

	allocation statistics:
					      heap	     stack
					      ----	     -----
	current number of blocks	         0	         0
	maximum number of blocks	        18	        41
	current total bytes		         0	         0
	maximum total bytes		   2117320	7731351336
	maximum total K-bytes		      2118	   7731352
	maximum total M-bytes		         3	      7732


                                     CITATION
                                     --------
                Please cite the following reference when publishing
                           results obtained with NWChem:

          E. Apra, E. J. Bylaska, W. A. de Jong, N. Govind, K. Kowalski,
       T. P. Straatsma, M. Valiev, H. J. J. van Dam, Y. Alexeev, J. Anchell,
       V. Anisimov, F. W. Aquino, R. Atta-Fynn, J. Autschbach, N. P. Bauman,
     J. C. Becca, D. E. Bernholdt, K. Bhaskaran-Nair, S. Bogatko, P. Borowski,
         J. Boschen, J. Brabec, A. Bruner, E. Cauet, Y. Chen, G. N. Chuev,
      C. J. Cramer, J. Daily, M. J. O. Deegan, T. H. Dunning Jr., M. Dupuis,
   K. G. Dyall, G. I. Fann, S. A. Fischer, A. Fonari, H. Fruchtl, L. Gagliardi,
      J. Garza, N. Gawande, S. Ghosh, K. Glaesemann, A. W. Gotz, J. Hammond,
       V. Helms, E. D. Hermes, K. Hirao, S. Hirata, M. Jacquelin, L. Jensen,
   B. G. Johnson, H. Jonsson, R. A. Kendall, M. Klemm, R. Kobayashi, V. Konkov,
      S. Krishnamoorthy, M. Krishnan, Z. Lin, R. D. Lins, R. J. Littlefield,
      A. J. Logsdail, K. Lopata, W. Ma, A. V. Marenich, J. Martin del Campo,
   D. Mejia-Rodriguez, J. E. Moore, J. M. Mullin, T. Nakajima, D. R. Nascimento,
    J. A. Nichols, P. J. Nichols, J. Nieplocha, A. Otero-de-la-Roza, B. Palmer,
    A. Panyala, T. Pirojsirikul, B. Peng, R. Peverati, J. Pittner, L. Pollack,
   R. M. Richard, P. Sadayappan, G. C. Schatz, W. A. Shelton, D. W. Silverstein,
   D. M. A. Smith, T. A. Soares, D. Song, M. Swart, H. L. Taylor, G. S. Thomas,
            V. Tipparaju, D. G. Truhlar, K. Tsemekhman, T. Van Voorhis,
      A. Vazquez-Mayagoitia, P. Verma, O. Villa, A. Vishnu, K. D. Vogiatzis,
        D. Wang, J. H. Weare, M. J. Williamson, T. L. Windus, K. Wolinski,
        A. T. Wong, Q. Wu, C. Yang, Q. Yu, M. Zacharias, Z. Zhang, Y. Zhao,
                                and R. J. Harrison
                        "NWChem: Past, present, and future
                         J. Chem. Phys. 152, 184102 (2020)
                               doi:10.1063/5.0004997

                                      AUTHORS
                                      -------
  E. Apra, E. J. Bylaska, N. Govind, K. Kowalski, M. Valiev, D. Mejia-Rodriguez,
       A. Kunitsa, N. P. Bauman, A. Panyala, W. A. de Jong, T. P. Straatsma,
   H. J. J. van Dam, D. Wang, T. L. Windus, J. Hammond, J. Autschbach, A. Woods,
    K. Bhaskaran-Nair, J. Brabec, K. Lopata, S. A. Fischer, S. Krishnamoorthy,
     M. Jacquelin, W. Ma, M. Klemm, O. Villa, Y. Chen, V. Anisimov, F. Aquino,
     S. Hirata, M. T. Hackler, E. Hermes, L. Jensen, J. E. Moore, J. C. Becca,
      V. Konjkov, T. Risthaus, M. Malagoli, A. Marenich, A. Otero-de-la-Roza,
        J. Mullin, P. Nichols, R. Peverati, J. Pittner, Y. Zhao, P.-D. Fan,
        A. Fonari, M. J. Williamson, R. J. Harrison, J. R. Rehr, M. Dupuis,
     D. Silverstein, D. M. A. Smith, J. Nieplocha, V. Tipparaju, M. Krishnan,
     B. E. Van Kuiken, A. Vazquez-Mayagoitia, M. Swart, Q. Wu, T. Van Voorhis,
     A. A. Auer, M. Nooijen, L. D. Crosby, E. Brown, G. Cisneros, G. I. Fann,
   H. Fruchtl, J. Garza, K. Hirao, R. A. Kendall, J. A. Nichols, K. Tsemekhman,
    K. Wolinski, J. Anchell, D. E. Bernholdt, P. Borowski, T. Clark, D. Clerc,
   H. Dachsel, M. J. O. Deegan, K. Dyall, D. Elwood, E. Glendening, M. Gutowski,
   A. C. Hess, J. Jaffe, B. G. Johnson, J. Ju, R. Kobayashi, R. Kutteh, Z. Lin,
   R. Littlefield, X. Long, B. Meng, T. Nakajima, S. Niu, L. Pollack, M. Rosing,
   K. Glaesemann, G. Sandrone, M. Stave, H. Taylor, G. Thomas, J. H. van Lenthe,
                               A. T. Wong, Z. Zhang.

 Total times  cpu:        4.5s     wall:        4.5s
