 argument  1 = /var/folders/v1/k9l8hql13n1gcrjl_yh_gs5m0000gn/T/tmp9bf68ig1/input_dimer.txt
                                         
                                         


             Northwest Computational Chemistry Package (NWChem) 7.2.3
             --------------------------------------------------------


                    Environmental Molecular Sciences Laboratory
                       Pacific Northwest National Laboratory
                                Richland, WA 99352

                              Copyright (c) 1994-2022
                       Pacific Northwest National Laboratory
                            Battelle Memorial Institute

             NWChem is an open-source computational chemistry package
                        distributed under the terms of the
                      Educational Community License (ECL) 2.0
             A copy of the license is included with this distribution
                              in the LICENSE.TXT file

                                  ACKNOWLEDGMENT
                                  --------------

            This software and its documentation were developed at the
            EMSL at Pacific Northwest National Laboratory, a multiprogram
            national laboratory, operated for the U.S. Department of Energy
            by Battelle under Contract Number DE-AC05-76RL01830. Support
            for this work was provided by the Department of Energy Office
            of Biological and Environmental Research, Office of Basic
            Energy Sciences, and the Office of Advanced Scientific Computing.


           Job information
           ---------------

    hostname        = visitor-wireless1-147-155-221-109.ameslab.gov
    program         = nwchem
    date            = Wed Jul  2 16:20:58 2025

    compiled        = Thu_Dec_26_16:03:44_2024
    source          = /private/tmp/nwchem-20241226-24280-orrtsi/nwchem-7.2.3
    nwchem branch   = 7.2.3
    nwchem revision = d690e065
    ga revision     = 5.8.0
    use scalapack   = T
    input           = /var/folders/v1/k9l8hql13n1gcrjl_yh_gs5m0000gn/T/tmp9bf68ig1/input_dimer.txt
    prefix          = input_dimer.
    data base       = ./input_dimer.db
    status          = restart
    nproc           =        8
    time left       =     -1s



           Memory information
           ------------------

    heap     =  536870908 doubles =   4096.0 Mbytes
    stack    =  536870913 doubles =   4096.0 Mbytes
    global   = 1073741824 doubles =   8192.0 Mbytes (distinct from heap & stack)
    total    = 2147483645 doubles =  16384.0 Mbytes
    verify   = yes
    hardfail = no 


           Directory information
           ---------------------

  0 permanent = .
  0 scratch   = .


           Previous task information
           -------------------------

    Theory    = ccsd(t)                         
    Operation = energy                        
    Status    = ok                            
    Qmmm      = F
    Ignore    = F


           Geometries in the database
           --------------------------

       Name                              Natoms  Last Modified
       --------------------------------  ------  ------------------------
    1  geometry                               6  Wed Jul  2 16:19:43 2025  

  The geometry named "geometry" is the default for restart



           Basis sets in the database
           --------------------------

       Name                              Natoms  Last Modified
        --------------------------------  ------  ------------------------
    1  ao basis                               2  Wed Jul  2 16:19:43 2025  

  The basis set named "ao basis" is the default AO basis for restart




                                NWChem Input Module
                                -------------------



 Scaling coordinates for geometry "geometry" by  1.889725989
 (inverse scale =  0.529177249)

 CS  symmetry detected


                             Geometry "geometry" -> ""
                             -------------------------

 Output coordinates in angstroms (scale by  1.889725989 to convert to a.u.)

  No.       Tag          Charge          X              Y              Z
 ---- ---------------- ---------- -------------- -------------- --------------
    1 O                    8.0000    -0.09279939     1.64449929     0.00000000
    2 H                    1.0000     0.50184648     1.62936681    -0.76105699
    3 H                    1.0000     0.50184648     1.62936681     0.76105699
    4 O                    8.0000    -0.02838685    -1.76042746     0.00000000
    5 H                    1.0000    -0.77806385    -1.15120272     0.00000000
    6 H                    1.0000     0.74386079    -1.18010548     0.00000000

      Atomic Mass 
      ----------- 

      O                 15.994910
      H                  1.007825


 Effective nuclear repulsion energy (a.u.)      34.1851614017

            Nuclear Dipole moment (a.u.) 
            ----------------------------
        X                 Y               Z
 ---------------- ---------------- ----------------
     0.0000000000    -0.0000000000     0.0000000000

      Symmetry information
      --------------------

 Group name             Cs        
 Group number              2
 Group order               2
 No. of unique centers     5

      Symmetry unique atoms

     1    2    4    5    6


            XYZ format geometry
            -------------------
     6
 geometry
 O                    -0.09279939     1.64449929     0.00000000
 H                     0.50184648     1.62936681    -0.76105699
 H                     0.50184648     1.62936681     0.76105699
 O                    -0.02838685    -1.76042746     0.00000000
 H                    -0.77806385    -1.15120272     0.00000000
 H                     0.74386079    -1.18010548     0.00000000

 ==============================================================================
                                internuclear distances
 ------------------------------------------------------------------------------
       center one      |      center two      | atomic units |  angstroms
 ------------------------------------------------------------------------------
    2 H                |   1 O                |     1.82536  |     0.96594
    3 H                |   1 O                |     1.82536  |     0.96594
    5 H                |   4 O                |     1.82549  |     0.96601
    6 H                |   4 O                |     1.82546  |     0.96599
 ------------------------------------------------------------------------------
                         number of included internuclear distances:          4
 ==============================================================================



 ==============================================================================
                                 internuclear angles
 ------------------------------------------------------------------------------
        center 1       |       center 2       |       center 3       |  degrees
 ------------------------------------------------------------------------------
    2 H                |   1 O                |   3 H                |   103.98
    5 H                |   4 O                |   6 H                |   103.98
 ------------------------------------------------------------------------------
                            number of included internuclear angles:          2
 ==============================================================================



  library name resolved from: environment
  library file name is: </opt/homebrew/Caskroom/mambaforge/base/envs/ames/share/nwchem/libraries/>
  
                      Basis "ao basis" -> "" (spherical)
                      -----
  O (Oxygen)
  ----------
            Exponent  Coefficients 
       -------------- ---------------------------------------------------------
  1 S  1.17200000E+04  0.000710
  1 S  1.75900000E+03  0.005470
  1 S  4.00800000E+02  0.027837
  1 S  1.13700000E+02  0.104800
  1 S  3.70300000E+01  0.283062
  1 S  1.32700000E+01  0.448719
  1 S  5.02500000E+00  0.270952
  1 S  1.01300000E+00  0.015458

  2 S  1.17200000E+04 -0.000160
  2 S  1.75900000E+03 -0.001263
  2 S  4.00800000E+02 -0.006267
  2 S  1.13700000E+02 -0.025716
  2 S  3.70300000E+01 -0.070924
  2 S  1.32700000E+01 -0.165411
  2 S  5.02500000E+00 -0.116955
  2 S  1.01300000E+00  0.557368

  3 S  3.02300000E-01  1.000000

  4 S  7.89600000E-02  1.000000

  5 P  1.77000000E+01  0.043018
  5 P  3.85400000E+00  0.228913
  5 P  1.04600000E+00  0.508728

  6 P  2.75300000E-01  1.000000

  7 P  6.85600000E-02  1.000000

  8 D  1.18500000E+00  1.000000

  9 D  3.32000000E-01  1.000000

  H (Hydrogen)
  ------------
            Exponent  Coefficients 
       -------------- ---------------------------------------------------------
  1 S  1.30100000E+01  0.019685
  1 S  1.96200000E+00  0.137977
  1 S  4.44600000E-01  0.478148

  2 S  1.22000000E-01  1.000000

  3 S  2.97400000E-02  1.000000

  4 P  7.27000000E-01  1.000000

  5 P  1.41000000E-01  1.000000



 Summary of "ao basis" -> "" (spherical)
 ------------------------------------------------------------------------------
       Tag                 Description            Shells   Functions and Types
 ---------------- ------------------------------  ------  ---------------------
 O                        aug-cc-pvdz                9       23   4s3p2d
 H                        aug-cc-pvdz                5        9   3s2p


                                 NWChem SCF Module
                                 -----------------



  ao basis        = "ao basis"
  functions       =    82
  atoms           =     6
  closed shells   =    10
  open shells     =     0
  charge          =   0.00
  wavefunction    = RHF 
  input vectors   = ./input_dimer.movecs
  output vectors  = ./input_dimer.movecs
  use symmetry    = T
  symmetry adapt  = T


 Summary of "ao basis" -> "ao basis" (spherical)
 ------------------------------------------------------------------------------
       Tag                 Description            Shells   Functions and Types
 ---------------- ------------------------------  ------  ---------------------
 O                        aug-cc-pvdz                9       23   4s3p2d
 H                        aug-cc-pvdz                5        9   3s2p


      Symmetry analysis of basis
      --------------------------

        a'         55
        a"         27


 Forming initial guess at       0.1s


 Loading old vectors from job with title :




      Symmetry analysis of molecular orbitals - initial
      -------------------------------------------------

  Numbering of irreducible representations: 

     1 a'          2 a"      

  Orbital symmetries:

     1 a'          2 a'          3 a'          4 a'          5 a"      
     6 a'          7 a'          8 a'          9 a'         10 a"      
    11 a'         12 a"         13 a'         14 a'         15 a'      
    16 a'         17 a"         18 a'         19 a"         20 a'      


 Starting SCF solution at       0.1s



 ----------------------------------------------
         Quadratically convergent ROHF

 Convergence threshold     :          1.000E-06
 Maximum no. of iterations :           30
 Final Fock-matrix accuracy:          1.000E-08
 ----------------------------------------------


 Integral file          = ./input_dimer.aoints.0
 Record size in doubles =  65536        No. of integs per rec  =  43688
 Max. records in memory =     17        Max. records in file   =   3875
 No. of bits per label  =      8        No. of bits per value  =     64


 #quartets = 1.758D+05 #integrals = 2.809D+06 #direct =  0.0% #cached =100.0%


File balance: exchanges=    15  moved=    12  time=   0.0


              iter       energy          gnorm     gmax       time
             ----- ------------------- --------- --------- --------
                 1     -152.0824253752  9.02D-02  2.13D-02      0.5
                 2     -152.0830764069  4.05D-03  1.37D-03      0.7
                 3     -152.0830789765  1.27D-05  2.93D-06      1.0
                 4     -152.0830789765  8.06D-08  1.56D-08      1.2


       Final RHF  results 
       ------------------ 

         Total SCF energy =   -152.083078976479
      One-electron energy =   -277.484568276314
      Two-electron energy =     91.216327898102
 Nuclear repulsion energy =     34.185161401733

        Time for solution =      1.2s



       Symmetry analysis of molecular orbitals - final
       -----------------------------------------------

  Numbering of irreducible representations: 

     1 a'          2 a"      

  Orbital symmetries:

     1 a'          2 a'          3 a'          4 a'          5 a"      
     6 a'          7 a'          8 a'          9 a'         10 a"      
    11 a'         12 a"         13 a'         14 a'         15 a'      
    16 a'         17 a"         18 a'         19 a"         20 a'      

             Final eigenvalues
             -----------------

              1      
    1  -20.5966
    2  -20.5700
    3   -1.3707
    4   -1.3439
    5   -0.7309
    6   -0.7052
    7   -0.6030
    8   -0.5794
    9   -0.5256
   10   -0.5007
   11    0.0255
   12    0.0532
   13    0.0632
   14    0.0635
   15    0.1624
   16    0.1860
   17    0.2102
   18    0.2184
   19    0.2219
   20    0.2401

                       ROHF Final Molecular Orbital Analysis
                       -------------------------------------

 Vector    2  Occ=2.000000D+00  E=-2.057001D+01  Symmetry=a'
              MO Center= -2.8D-02, -1.8D+00,  8.8D-17, r^2= 1.5D-02
   Bfn.  Coefficient  Atom+Function         Bfn.  Coefficient  Atom+Function  
  ----- ------------  ---------------      ----- ------------  ---------------
    42      1.001472  4 O  s          

 Vector    3  Occ=2.000000D+00  E=-1.370691D+00  Symmetry=a'
              MO Center=  7.4D-02,  1.6D+00,  9.2D-17, r^2= 5.3D-01
   Bfn.  Coefficient  Atom+Function         Bfn.  Coefficient  Atom+Function  
  ----- ------------  ---------------      ----- ------------  ---------------
     2      0.448106  1 O  s                  3      0.382981  1 O  s          
    24      0.202097  2 H  s                 33      0.202097  3 H  s          

 Vector    4  Occ=2.000000D+00  E=-1.343902D+00  Symmetry=a'
              MO Center= -2.3D-02, -1.6D+00, -1.3D-16, r^2= 5.3D-01
   Bfn.  Coefficient  Atom+Function         Bfn.  Coefficient  Atom+Function  
  ----- ------------  ---------------      ----- ------------  ---------------
    43      0.448164  4 O  s                 44      0.383249  4 O  s          
    74      0.203049  6 H  s                 65      0.201251  5 H  s          

 Vector    5  Occ=2.000000D+00  E=-7.309453D-01  Symmetry=a"
              MO Center=  1.2D-01,  1.6D+00, -8.6D-17, r^2= 7.7D-01
   Bfn.  Coefficient  Atom+Function         Bfn.  Coefficient  Atom+Function  
  ----- ------------  ---------------      ----- ------------  ---------------
     7      0.499353  1 O  pz                24     -0.346549  2 H  s          
    33      0.346549  3 H  s                 10      0.198621  1 O  pz         

 Vector    6  Occ=2.000000D+00  E=-7.052265D-01  Symmetry=a'
              MO Center= -2.2D-02, -1.5D+00, -1.7D-13, r^2= 7.7D-01
   Bfn.  Coefficient  Atom+Function         Bfn.  Coefficient  Atom+Function  
  ----- ------------  ---------------      ----- ------------  ---------------
    46      0.498360  4 O  px                74      0.347800  6 H  s          
    65     -0.344713  5 H  s                 49      0.197733  4 O  px         

 Vector    7  Occ=2.000000D+00  E=-6.029590D-01  Symmetry=a'
              MO Center= -1.3D-01,  1.6D+00,  1.4D-18, r^2= 7.5D-01
   Bfn.  Coefficient  Atom+Function         Bfn.  Coefficient  Atom+Function  
  ----- ------------  ---------------      ----- ------------  ---------------
     5      0.547125  1 O  px                 8      0.326199  1 O  px         
     3     -0.314924  1 O  s                 24      0.211869  2 H  s          
    33      0.211869  3 H  s                  2     -0.151233  1 O  s          

 Vector    8  Occ=2.000000D+00  E=-5.793509D-01  Symmetry=a'
              MO Center= -2.7D-02, -1.6D+00, -2.9D-20, r^2= 1.2D+00
   Bfn.  Coefficient  Atom+Function         Bfn.  Coefficient  Atom+Function  
  ----- ------------  ---------------      ----- ------------  ---------------
    47      0.534438  4 O  py                50      0.318568  4 O  py         
    44     -0.307981  4 O  s                 65      0.207178  5 H  s          
    74      0.207094  6 H  s          

 Vector    9  Occ=2.000000D+00  E=-5.255706D-01  Symmetry=a'
              MO Center= -5.3D-02,  1.5D+00, -2.8D-19, r^2= 1.2D+00
   Bfn.  Coefficient  Atom+Function         Bfn.  Coefficient  Atom+Function  
  ----- ------------  ---------------      ----- ------------  ---------------
     6      0.616477  1 O  py                 9      0.444715  1 O  py         

 Vector   10  Occ=2.000000D+00  E=-5.006553D-01  Symmetry=a"
              MO Center= -2.6D-02, -1.7D+00, -3.2D-16, r^2= 6.8D-01
   Bfn.  Coefficient  Atom+Function         Bfn.  Coefficient  Atom+Function  
  ----- ------------  ---------------      ----- ------------  ---------------
    48      0.627589  4 O  pz                51      0.451452  4 O  pz         

 Vector   11  Occ=0.000000D+00  E= 2.545371D-02  Symmetry=a'
              MO Center=  1.2D+00,  1.2D+00,  5.7D-15, r^2= 1.1D+01
   Bfn.  Coefficient  Atom+Function         Bfn.  Coefficient  Atom+Function  
  ----- ------------  ---------------      ----- ------------  ---------------
     4      1.170932  1 O  s                 45      0.746329  4 O  s          
    76     -0.733727  6 H  s                 26     -0.686098  2 H  s          
    35     -0.686098  3 H  s                 75     -0.368670  6 H  s          
    25     -0.339009  2 H  s                 34     -0.339009  3 H  s          
    67      0.302439  5 H  s                 53      0.199664  4 O  py         

 Vector   12  Occ=0.000000D+00  E= 5.324702D-02  Symmetry=a"
              MO Center=  8.6D-01,  1.7D+00, -3.0D-15, r^2= 1.5D+01
   Bfn.  Coefficient  Atom+Function         Bfn.  Coefficient  Atom+Function  
  ----- ------------  ---------------      ----- ------------  ---------------
    26      2.956288  2 H  s                 35     -2.956288  3 H  s          
    13      0.791884  1 O  pz                25      0.537750  2 H  s          
    34     -0.537750  3 H  s          

 Vector   13  Occ=0.000000D+00  E= 6.319632D-02  Symmetry=a'
              MO Center=  1.4D+00, -4.0D-01,  1.2D-15, r^2= 1.7D+01
   Bfn.  Coefficient  Atom+Function         Bfn.  Coefficient  Atom+Function  
  ----- ------------  ---------------      ----- ------------  ---------------
    76      3.117249  6 H  s                 67     -1.389455  5 H  s          
    45     -1.226255  4 O  s                  4      0.984090  1 O  s          
    26     -0.804282  2 H  s                 35     -0.804282  3 H  s          
    75      0.722816  6 H  s                 52     -0.573137  4 O  px         
    25     -0.291546  2 H  s                 34     -0.291546  3 H  s          

 Vector   14  Occ=0.000000D+00  E= 6.350475D-02  Symmetry=a'
              MO Center= -1.8D+00, -1.2D+00, -2.1D-17, r^2= 1.2D+01
   Bfn.  Coefficient  Atom+Function         Bfn.  Coefficient  Atom+Function  
  ----- ------------  ---------------      ----- ------------  ---------------
    67      2.941836  5 H  s                 45     -1.289359  4 O  s          
    76     -1.264186  6 H  s                 66      0.810275  5 H  s          
    52      0.601817  4 O  px                26     -0.412502  2 H  s          
    35     -0.412502  3 H  s                  4      0.179914  1 O  s          
    12      0.178232  1 O  py                44     -0.171925  4 O  s          

 Vector   15  Occ=0.000000D+00  E= 1.623552D-01  Symmetry=a'
              MO Center=  5.0D-01,  1.2D+00,  1.9D-15, r^2= 1.1D+01
   Bfn.  Coefficient  Atom+Function         Bfn.  Coefficient  Atom+Function  
  ----- ------------  ---------------      ----- ------------  ---------------
     4      4.840902  1 O  s                 25     -1.981520  2 H  s          
    34     -1.981520  3 H  s                 11      1.747518  1 O  px         
    45      1.271705  4 O  s                 76     -0.981371  6 H  s          
    66     -0.701918  5 H  s                 12     -0.659702  1 O  py         
    26     -0.659326  2 H  s                 35     -0.659326  3 H  s          

 Vector   16  Occ=0.000000D+00  E= 1.859599D-01  Symmetry=a'
              MO Center= -4.1D-01, -3.4D-01, -1.5D-15, r^2= 1.1D+01
   Bfn.  Coefficient  Atom+Function         Bfn.  Coefficient  Atom+Function  
  ----- ------------  ---------------      ----- ------------  ---------------
    45      3.164176  4 O  s                 75     -1.700782  6 H  s          
     4     -1.517179  1 O  s                 11     -1.471464  1 O  px         
    53      1.406720  4 O  py                25      0.997064  2 H  s          
    34      0.997064  3 H  s                 66     -0.831751  5 H  s          
    67     -0.721046  5 H  s                 52      0.615306  4 O  px         

 Vector   17  Occ=0.000000D+00  E= 2.101996D-01  Symmetry=a"
              MO Center=  1.6D-03, -1.5D+00,  4.0D-16, r^2= 9.0D+00
   Bfn.  Coefficient  Atom+Function         Bfn.  Coefficient  Atom+Function  
  ----- ------------  ---------------      ----- ------------  ---------------
    54      1.447187  4 O  pz                26      1.377318  2 H  s          
    35     -1.377318  3 H  s                 13      0.906675  1 O  pz         
    25      0.672537  2 H  s                 34     -0.672537  3 H  s          
    82     -0.294755  6 H  pz                73     -0.289542  5 H  pz         
    51     -0.234075  4 O  pz                48     -0.173381  4 O  pz         

 Vector   18  Occ=0.000000D+00  E= 2.183511D-01  Symmetry=a'
              MO Center=  1.6D-01,  9.2D-01,  1.3D-15, r^2= 1.2D+01
   Bfn.  Coefficient  Atom+Function         Bfn.  Coefficient  Atom+Function  
  ----- ------------  ---------------      ----- ------------  ---------------
     4      1.940077  1 O  s                 66      1.370946  5 H  s          
    12      1.253960  1 O  py                52      1.101432  4 O  px         
    67      0.878126  5 H  s                 75     -0.716434  6 H  s          
    26     -0.639566  2 H  s                 35     -0.639566  3 H  s          
    76     -0.579196  6 H  s                 53     -0.571812  4 O  py         

 Vector   19  Occ=0.000000D+00  E= 2.219160D-01  Symmetry=a"
              MO Center= -1.4D-01,  1.3D+00,  5.7D-15, r^2= 1.1D+01
   Bfn.  Coefficient  Atom+Function         Bfn.  Coefficient  Atom+Function  
  ----- ------------  ---------------      ----- ------------  ---------------
    13      2.918960  1 O  pz                25      2.473704  2 H  s          
    34     -2.473704  3 H  s                 26      2.430798  2 H  s          
    35     -2.430798  3 H  s                 32      0.568903  2 H  pz         
    41      0.568903  3 H  pz                30     -0.535998  2 H  px         
    39      0.535998  3 H  px                54     -0.396026  4 O  pz         

 Vector   20  Occ=0.000000D+00  E= 2.401190D-01  Symmetry=a'
              MO Center=  1.4D-01,  1.2D-01,  3.4D-15, r^2= 9.8D+00
   Bfn.  Coefficient  Atom+Function         Bfn.  Coefficient  Atom+Function  
  ----- ------------  ---------------      ----- ------------  ---------------
    45      3.183177  4 O  s                  4     -1.108271  1 O  s          
    66     -0.912803  5 H  s                 12      0.750283  1 O  py         
    76     -0.699885  6 H  s                 67     -0.690827  5 H  s          
    80      0.527700  6 H  px                72      0.489375  5 H  py         
    75     -0.454374  6 H  s                 52     -0.423353  4 O  px         

 Vector   21  Occ=0.000000D+00  E= 2.458310D-01  Symmetry=a'
              MO Center= -5.4D-01, -9.5D-01,  7.3D-15, r^2= 1.2D+01
   Bfn.  Coefficient  Atom+Function         Bfn.  Coefficient  Atom+Function  
  ----- ------------  ---------------      ----- ------------  ---------------
    67      3.009528  5 H  s                 76     -2.953204  6 H  s          
    52      2.612652  4 O  px                66      2.302303  5 H  s          
    75     -2.139514  6 H  s                  4     -0.695712  1 O  s          
    72     -0.692097  5 H  py                71      0.645019  5 H  px         
    80      0.621520  6 H  px                11      0.601367  1 O  px         

 Vector   22  Occ=0.000000D+00  E= 2.695142D-01  Symmetry=a'
              MO Center= -6.2D-02, -6.9D-01,  5.8D-16, r^2= 1.3D+01
   Bfn.  Coefficient  Atom+Function         Bfn.  Coefficient  Atom+Function  
  ----- ------------  ---------------      ----- ------------  ---------------
    53      1.957862  4 O  py                12      1.792805  1 O  py         
    66     -1.458776  5 H  s                 76      1.305459  6 H  s          
    45      0.993720  4 O  s                 52     -0.784679  4 O  px         
    26     -0.659747  2 H  s                 35     -0.659747  3 H  s          
    75     -0.465734  6 H  s                 11      0.331021  1 O  px         

 Vector   23  Occ=0.000000D+00  E= 2.697510D-01  Symmetry=a"
              MO Center=  4.3D-01,  1.5D+00, -3.7D-14, r^2= 4.8D+00
   Bfn.  Coefficient  Atom+Function         Bfn.  Coefficient  Atom+Function  
  ----- ------------  ---------------      ----- ------------  ---------------
    25      0.905297  2 H  s                 34     -0.905297  3 H  s          
    13      0.842014  1 O  pz                30      0.451165  2 H  px         
    39     -0.451165  3 H  px                26     -0.430815  2 H  s          
    35      0.430815  3 H  s                 32     -0.416255  2 H  pz         
    41     -0.416255  3 H  pz                82     -0.289535  6 H  pz         

 Vector   24  Occ=0.000000D+00  E= 3.009212D-01  Symmetry=a'
              MO Center=  5.6D-02, -5.6D-01,  4.5D-16, r^2= 7.6D+00
   Bfn.  Coefficient  Atom+Function         Bfn.  Coefficient  Atom+Function  
  ----- ------------  ---------------      ----- ------------  ---------------
    75      2.027843  6 H  s                  4     -1.520631  1 O  s          
    45     -1.473025  4 O  s                 52     -1.468231  4 O  px         
    11     -1.091326  1 O  px                25      0.947902  2 H  s          
    34      0.947902  3 H  s                 67     -0.770725  5 H  s          
    76      0.737998  6 H  s                 53     -0.702366  4 O  py         

 Vector   25  Occ=0.000000D+00  E= 3.127882D-01  Symmetry=a'
              MO Center=  8.9D-02,  7.5D-02, -2.3D-16, r^2= 7.7D+00
   Bfn.  Coefficient  Atom+Function         Bfn.  Coefficient  Atom+Function  
  ----- ------------  ---------------      ----- ------------  ---------------
    45      4.483857  4 O  s                  4     -2.890032  1 O  s          
    66     -2.098475  5 H  s                 75     -1.923126  6 H  s          
    25      1.381830  2 H  s                 34      1.381830  3 H  s          
    53      0.860247  4 O  py                30     -0.522918  2 H  px         
    39     -0.522918  3 H  px                76     -0.508741  6 H  s          

 Vector   26  Occ=0.000000D+00  E= 3.564005D-01  Symmetry=a"
              MO Center=  5.2D-01,  6.3D-01, -3.7D-15, r^2= 6.3D+00
   Bfn.  Coefficient  Atom+Function         Bfn.  Coefficient  Atom+Function  
  ----- ------------  ---------------      ----- ------------  ---------------
    31      0.858470  2 H  py                40     -0.858470  3 H  py         
    54     -0.800119  4 O  pz                82      0.760690  6 H  pz         
    26     -0.422104  2 H  s                 35      0.422104  3 H  s          
    73      0.309980  5 H  pz                51     -0.228386  4 O  pz         
    30      0.169083  2 H  px                39     -0.169083  3 H  px         

 Vector   27  Occ=0.000000D+00  E= 3.740310D-01  Symmetry=a'
              MO Center=  2.4D-01, -2.1D-01, -3.5D-14, r^2= 6.2D+00
   Bfn.  Coefficient  Atom+Function         Bfn.  Coefficient  Atom+Function  
  ----- ------------  ---------------      ----- ------------  ---------------
    45      3.268939  4 O  s                 75     -2.024279  6 H  s          
    66     -1.959068  5 H  s                  4      1.526357  1 O  s          
    25     -0.978171  2 H  s                 34     -0.978171  3 H  s          
    53      0.633552  4 O  py                80     -0.413379  6 H  px         
    30      0.388042  2 H  px                39      0.388042  3 H  px         

 Vector   28  Occ=0.000000D+00  E= 4.101560D-01  Symmetry=a"
              MO Center= -2.2D-01, -8.3D-01,  2.0D-13, r^2= 5.0D+00
   Bfn.  Coefficient  Atom+Function         Bfn.  Coefficient  Atom+Function  
  ----- ------------  ---------------      ----- ------------  ---------------
    73      1.300429  5 H  pz                82     -0.907889  6 H  pz         
    13     -0.699214  1 O  pz                25     -0.597466  2 H  s          
    34      0.597466  3 H  s                 26     -0.466877  2 H  s          
    35      0.466877  3 H  s                 31      0.250529  2 H  py         
    40     -0.250529  3 H  py                54     -0.238965  4 O  pz         

 Vector   29  Occ=0.000000D+00  E= 4.111609D-01  Symmetry=a'
              MO Center= -2.7D-02, -2.1D-01,  1.7D-15, r^2= 6.8D+00
   Bfn.  Coefficient  Atom+Function         Bfn.  Coefficient  Atom+Function  
  ----- ------------  ---------------      ----- ------------  ---------------
    45      4.280087  4 O  s                 66     -2.329400  5 H  s          
    75     -1.781914  6 H  s                  4     -1.433580  1 O  s          
    11     -1.189254  1 O  px                53      1.192622  4 O  py         
    25      0.800718  2 H  s                 34      0.800718  3 H  s          
    67     -0.793079  5 H  s                 50      0.586193  4 O  py         

 Vector   30  Occ=0.000000D+00  E= 4.551789D-01  Symmetry=a'
              MO Center= -1.6D-01,  7.6D-01, -4.0D-15, r^2= 6.5D+00
   Bfn.  Coefficient  Atom+Function         Bfn.  Coefficient  Atom+Function  
  ----- ------------  ---------------      ----- ------------  ---------------
     4      5.452910  1 O  s                 25     -2.765762  2 H  s          
    34     -2.765762  3 H  s                 12     -1.664537  1 O  py         
    11      1.280872  1 O  px                31      0.815469  2 H  py         
    40      0.815469  3 H  py                52     -0.784784  4 O  px         
    80      0.728635  6 H  px                71      0.714502  5 H  px         

 Vector   31  Occ=0.000000D+00  E= 4.927917D-01  Symmetry=a"
              MO Center=  3.7D-01,  5.8D-01, -1.3D-14, r^2= 6.4D+00
   Bfn.  Coefficient  Atom+Function         Bfn.  Coefficient  Atom+Function  
  ----- ------------  ---------------      ----- ------------  ---------------
    25      2.057285  2 H  s                 34     -2.057285  3 H  s          
    32      1.676543  2 H  pz                41      1.676543  3 H  pz         
    82     -0.819677  6 H  pz                73     -0.721049  5 H  pz         
    54      0.616700  4 O  pz                31      0.591225  2 H  py         
    40     -0.591225  3 H  py                51      0.442520  4 O  pz         

 Vector   32  Occ=0.000000D+00  E= 5.423244D-01  Symmetry=a'
              MO Center=  3.8D-01,  1.0D+00, -1.7D-14, r^2= 6.7D+00
   Bfn.  Coefficient  Atom+Function         Bfn.  Coefficient  Atom+Function  
  ----- ------------  ---------------      ----- ------------  ---------------
     4      8.346670  1 O  s                 25     -4.382378  2 H  s          
    34     -4.382378  3 H  s                 11      2.238374  1 O  px         
     3      1.038533  1 O  s                 75     -0.996322  6 H  s          
    71     -0.812240  5 H  px                 8      0.772528  1 O  px         
    66     -0.752548  5 H  s                 72     -0.727038  5 H  py         


 center of mass
 --------------
 x =  -0.05043065 y =  -0.04824256 z =   0.00000000

 moments of inertia (a.u.)
 ------------------
         364.464943206027          -0.000031935460           0.000000000000
          -0.000031935460          10.598488852132           0.000000000000
           0.000000000000           0.000000000000         366.725139018182

  Mulliken analysis of the total density
  --------------------------------------

    Atom       Charge   Shell Charges
 -----------   ------   -------------------------------------------------------
    1 O    8     8.33   2.00  0.84  0.82  0.09  2.82  1.65  0.12  0.01 -0.02
    2 H    1     0.83   0.72  0.02 -0.00  0.08  0.01
    3 H    1     0.83   0.72  0.02 -0.00  0.08  0.01
    4 O    8     8.34   2.00  0.84  0.82  0.09  2.82  1.65  0.12  0.01 -0.02
    5 H    1     0.82   0.71  0.02  0.00  0.08  0.01
    6 H    1     0.85   0.72  0.03 -0.00  0.08  0.02

       Multipole analysis of the density wrt the origin
       ------------------------------------------------

     L   x y z        total         open         nuclear
     -   - - -        -----         ----         -------
     0   0 0 0     -0.000000      0.000000     20.000000

     1   1 0 0      0.777740      0.000000      0.000000
     1   0 1 0      0.838424      0.000000     -0.000000
     1   0 0 1      0.000000      0.000000      0.000000

     2   2 0 0     -7.738224      0.000000      6.205625
     2   1 1 0      2.398539      0.000000      2.971749
     2   1 0 1      0.000000      0.000000      0.000000
     2   0 2 0    -15.334729      0.000000    194.463918
     2   0 1 1     -0.000000      0.000000      0.000000
     2   0 0 2     -8.823748      0.000000      4.136776


------------------------------------------------------------
EAF file 0: "./input_dimer.aoints.0" size=2097152 bytes
------------------------------------------------------------
               write      read    awrite     aread      wait
               -----      ----    ------     -----      ----
     calls:        4         1         0         3         3
   data(b): 2.10e+06  5.24e+05  0.00e+00  1.57e+06
   time(s): 0.00e+00  0.00e+00  0.00e+00  0.00e+00  0.00e+00
rate(mb/s): 0.00e+00  0.00e+00
------------------------------------------------------------


 Parallel integral file used      69 records with       0 large values



                   Four-Index Transformation
                   -------------------------
          Number of basis functions:             82
          Number of shells:                      38
          Number of occupied orbitals:           10
          Number of occ. correlated orbitals:    10
          Block length:                          16
          Superscript MO index range:      1 -   10
          Subscript MO index range:        1 -   82
          MO coefficients read from:  ./input_dimer.movecs     
          Number of operator matrices in core:  110
          Half-transformed integrals produced

     Pass:    1     Index range:    1  -   10     Time:      1.97
 ------------------------------------------
 MP2 Energy (coupled cluster initial guess)
 ------------------------------------------
 Reference energy:           -152.083078976479385
 MP2 Corr. energy:             -0.446187781192604
 Total MP2 energy:           -152.529266757671991


 ****************************************************************************
              the segmented parallel ccsd program:    8 nodes
 ****************************************************************************




 level of theory    ccsd(t)
 number of core         0
 number of occupied    10
 number of virtual     72
 number of deleted      0
 total functions       82
 number of shells      38
 basis label          566



   ***** ccsd parameters *****
   iprt   =     0
   convi  =  0.100E-05
   maxit  =    20
   mxvec  =     5
 memory           1073724036
  Using  1 OpenMP thread(s) in CCSD
  Restarting from old vector in ./input_dimer.t2


-------------------------------------------------------------------------
 iter     correlation     delta       rms       T2     Non-T2      Main
             energy      energy      error      ampl     ampl      Block
                                                time     time      time
-------------------------------------------------------------------------
   1     -0.4536125749 -4.536D-01  1.702D-01     2.87     0.00     2.51
   2     -0.4531519408  4.606D-04  2.991D-01     1.30     0.00     0.99
   3     -0.4592993202 -6.147D-03  3.750D-02     1.10     0.01     0.78
   4     -0.4604477637 -1.148D-03  4.050D-02     1.13     0.00     0.79
   5     -0.4609211002 -4.733D-04  2.921D-03     1.21     0.00     0.81
   6     -0.4610970206 -1.759D-04  1.888D-03     1.31     0.00     0.81
   7     -0.4611117193 -1.470D-05  1.026D-04     1.26     0.00     0.79
   8     -0.4611076707  4.049D-06  1.032D-04     1.50     0.00     1.12
   9     -0.4611087605 -1.090D-06  5.732D-05     1.13     0.00     0.78
  10     -0.4611062946  2.466D-06  3.263D-05     1.18     0.00     0.78
  11     -0.4611062711  2.359D-08  3.427D-05     1.12     0.00     0.77
  12     -0.4611062048  6.627D-08  1.665D-05     1.22     0.00     0.87
  13     -0.4611062368 -3.203D-08  5.063D-06     1.34     0.00     0.95
  14     -0.4611062934 -5.661D-08  6.063D-07     1.12     0.00     0.82
                  *************converged*************
-------------------------------------------------------------------------

 -----------
 CCSD Energy
 -----------
 Reference energy:            -152.083078976479385
 CCSD corr. energy:             -0.461106293423961
 Total CCSD energy:           -152.544185269903352


 --------------------------------
 Spin Component Scaled (SCS) CCSD
 --------------------------------
 Same spin contribution:                 -0.100943754425438
 Same spin scaling factor:                1.130000000000000
 Opposite spin contribution:             -0.360162538998523
 Opposite spin scaling fact.:             1.270000000000000
 SCS-CCSD correlation energy:            -0.571472867028869
 Total SCS-CCSD energy:                -152.654551843508273
 memory           1073724036


*********triples calculation*********

nkpass=    1; nvpass=    1; memdrv=         271656; memtrn=         680678; memavail=     1073723300
 memory available/node                     1073723300
 total number of virtual orbitals        72
 number of virtuals per integral pass    72
 number of integral evaluations           1
 number of occupied per triples pass     10
 number of triples passes                 1

 commencing integral evaluation        1 at          22.57
  symmetry use  T
task         2 out of       741 done   0%  at       0.1 secs
task        42 out of       741 done   5%  at       0.4 secs
task        86 out of       741 done  11%  at       0.6 secs
task       113 out of       741 done  15%  at       0.8 secs
task       156 out of       741 done  21%  at       0.9 secs
task       194 out of       741 done  26%  at       1.0 secs
task       227 out of       741 done  30%  at       1.1 secs
task       272 out of       741 done  36%  at       1.2 secs
task       303 out of       741 done  40%  at       1.3 secs
task       342 out of       741 done  46%  at       1.5 secs
task       377 out of       741 done  50%  at       1.6 secs
task       412 out of       741 done  55%  at       1.7 secs
task       454 out of       741 done  61%  at       1.8 secs
task       517 out of       741 done  69%  at       1.8 secs
task       536 out of       741 done  72%  at       1.9 secs
task       558 out of       741 done  75%  at       1.9 secs
task       595 out of       741 done  80%  at       2.0 secs
task       633 out of       741 done  85%  at       2.1 secs
task       668 out of       741 done  90%  at       2.2 secs
task       710 out of       741 done  95%  at       2.2 secs
task       742 out of       741 done 100%  at       2.3 secs
 commencing triples evaluation - blocking       1
 ccsd(t): done        1 out of       72 progress:    1.4%
 ccsd(t): done        2 out of       72 progress:    2.8%
 ccsd(t): done        3 out of       72 progress:    4.2%
 ccsd(t): done        4 out of       72 progress:    5.6%
 ccsd(t): done        5 out of       72 progress:    6.9%
 ccsd(t): done        6 out of       72 progress:    8.3%
 ccsd(t): done        7 out of       72 progress:    9.7%
 ccsd(t): done        8 out of       72 progress:   11.1%
 ccsd(t): done        9 out of       72 progress:   12.5%
 ccsd(t): done       10 out of       72 progress:   13.9%
 ccsd(t): done       11 out of       72 progress:   15.3%
 ccsd(t): done       12 out of       72 progress:   16.7%
 ccsd(t): done       13 out of       72 progress:   18.1%
 ccsd(t): done       14 out of       72 progress:   19.4%
 ccsd(t): done       15 out of       72 progress:   20.8%
 ccsd(t): done       16 out of       72 progress:   22.2%
 ccsd(t): done       17 out of       72 progress:   23.6%
 ccsd(t): done       18 out of       72 progress:   25.0%
 ccsd(t): done       19 out of       72 progress:   26.4%
 ccsd(t): done       20 out of       72 progress:   27.8%
 ccsd(t): done       21 out of       72 progress:   29.2%
 ccsd(t): done       22 out of       72 progress:   30.6%
 ccsd(t): done       23 out of       72 progress:   31.9%
 ccsd(t): done       24 out of       72 progress:   33.3%
 ccsd(t): done       25 out of       72 progress:   34.7%
 ccsd(t): done       26 out of       72 progress:   36.1%
 ccsd(t): done       27 out of       72 progress:   37.5%
 ccsd(t): done       28 out of       72 progress:   38.9%
 ccsd(t): done       29 out of       72 progress:   40.3%
 ccsd(t): done       30 out of       72 progress:   41.7%
 ccsd(t): done       31 out of       72 progress:   43.1%
 ccsd(t): done       32 out of       72 progress:   44.4%
 ccsd(t): done       33 out of       72 progress:   45.8%
 ccsd(t): done       34 out of       72 progress:   47.2%
 ccsd(t): done       35 out of       72 progress:   48.6%
 ccsd(t): done       36 out of       72 progress:   50.0%
 ccsd(t): done       37 out of       72 progress:   51.4%
 ccsd(t): done       38 out of       72 progress:   52.8%
 ccsd(t): done       39 out of       72 progress:   54.2%
 ccsd(t): done       40 out of       72 progress:   55.6%
 ccsd(t): done       41 out of       72 progress:   56.9%
 ccsd(t): done       42 out of       72 progress:   58.3%
 ccsd(t): done       43 out of       72 progress:   59.7%
 ccsd(t): done       44 out of       72 progress:   61.1%
 ccsd(t): done       45 out of       72 progress:   62.5%
 ccsd(t): done       46 out of       72 progress:   63.9%
 ccsd(t): done       47 out of       72 progress:   65.3%
 ccsd(t): done       48 out of       72 progress:   66.7%
 ccsd(t): done       49 out of       72 progress:   68.1%
 ccsd(t): done       50 out of       72 progress:   69.4%
 ccsd(t): done       51 out of       72 progress:   70.8%
 ccsd(t): done       52 out of       72 progress:   72.2%
 ccsd(t): done       53 out of       72 progress:   73.6%
 ccsd(t): done       54 out of       72 progress:   75.0%
 ccsd(t): done       55 out of       72 progress:   76.4%
 ccsd(t): done       56 out of       72 progress:   77.8%
 ccsd(t): done       57 out of       72 progress:   79.2%
 ccsd(t): done       58 out of       72 progress:   80.6%
 ccsd(t): done       59 out of       72 progress:   81.9%
 ccsd(t): done       60 out of       72 progress:   83.3%
 ccsd(t): done       61 out of       72 progress:   84.7%
 ccsd(t): done       62 out of       72 progress:   86.1%
 ccsd(t): done       63 out of       72 progress:   87.5%
 ccsd(t): done       64 out of       72 progress:   88.9%
 ccsd(t): done       65 out of       72 progress:   90.3%
 ccsd(t): done       66 out of       72 progress:   91.7%
 ccsd(t): done       67 out of       72 progress:   93.1%
 ccsd(t): done       68 out of       72 progress:   94.4%
 ccsd(t): done       69 out of       72 progress:   95.8%
 ccsd(t): done       70 out of       72 progress:   97.2%
 ccsd(t): done       71 out of       72 progress:   98.6%
 ccsd(t): done       72 out of       72 progress:  100.0%
 Time for integral evaluation pass     1        2.41
 Time for triples evaluation pass      1        6.78

 pseudo-e(mp4)  -0.11629605363008E-01
 pseudo-e(mp5)   0.82208963355918E-03
        e(t)    -0.10807515729449E-01

 --------------
 CCSD(T) Energy
 --------------
 Reference energy:                    -152.083078976479385

 CCSD corr. energy:                     -0.461106293423961
 T(CCSD) corr. energy:                  -0.011629605363008
 Total CCSD+T(CCSD) energy:           -152.555814875266350

 CCSD corr. energy:                     -0.461106293423961
 (T) corr. energy:                      -0.010807515729449
 Total CCSD(T) energy:                -152.554992785632805

 routine      calls  cpu(0)   cpu-min  cpu-ave  cpu-max   i/o 
 aoccsd          1     0.13     0.13     0.13     0.13    0.00
 iterdrv         1     0.16     0.16     0.16     0.16    0.00
 pampt          14     0.42     0.42     0.42     0.42    0.00
 t2pm           14     0.94     0.94     0.94     0.94    0.00
 sxy            14     1.46     0.41     1.15     1.46    0.00
 ints        68691     0.60     0.60     0.61     0.62    0.00
 f_write       186     0.05     0.05     0.05     0.05    0.00
 t2eri        1302     2.97     2.78     2.91     3.07    0.00
 idx2         1302     8.28     8.28     8.65     9.53    0.00
 idx34          14     0.05     0.04     0.05     0.06    0.00
 ht2pm          14     0.28     0.28     0.28     0.28    0.00
 itm            14     3.58     3.58     3.58     3.58    0.00
 pdiis          14     0.01     0.01     0.01     0.01    0.00
 r_read       1209     0.16     0.14     0.15     0.16    0.00
 triples         1     0.01     0.01     0.01     0.01    0.00
 rdtrpo          1     0.02     0.02     0.02     0.02    0.00
 trpmos          1     2.41     2.41     2.41     2.41    0.00
 trpdrv          1     3.65     3.65     3.81     3.95    0.00
 dovvv       10450     2.10     1.93     2.01     2.10    0.00
 doooo       10450     0.39     0.33     0.36     0.40    0.00
 tengy        9500     0.63     0.54     0.58     0.63    0.00
 Total                28.30    28.29    28.30    28.30    0.00

 Task  times  cpu:       31.8s     wall:       31.8s


                                NWChem Input Module
                                -------------------


 Summary of allocated global arrays
-----------------------------------
  No active global arrays


MA_summarize_allocated_blocks: starting scan ...
MA_summarize_allocated_blocks: scan completed: 0 heap blocks, 0 stack blocks
MA usage statistics:

	allocation statistics:
					      heap	     stack
					      ----	     -----
	current number of blocks	         0	         0
	maximum number of blocks	        18	        42
	current total bytes		         0	         0
	maximum total bytes		   8999728	7731416168
	maximum total K-bytes		      9000	   7731417
	maximum total M-bytes		         9	      7732


                                     CITATION
                                     --------
                Please cite the following reference when publishing
                           results obtained with NWChem:

          E. Apra, E. J. Bylaska, W. A. de Jong, N. Govind, K. Kowalski,
       T. P. Straatsma, M. Valiev, H. J. J. van Dam, Y. Alexeev, J. Anchell,
       V. Anisimov, F. W. Aquino, R. Atta-Fynn, J. Autschbach, N. P. Bauman,
     J. C. Becca, D. E. Bernholdt, K. Bhaskaran-Nair, S. Bogatko, P. Borowski,
         J. Boschen, J. Brabec, A. Bruner, E. Cauet, Y. Chen, G. N. Chuev,
      C. J. Cramer, J. Daily, M. J. O. Deegan, T. H. Dunning Jr., M. Dupuis,
   K. G. Dyall, G. I. Fann, S. A. Fischer, A. Fonari, H. Fruchtl, L. Gagliardi,
      J. Garza, N. Gawande, S. Ghosh, K. Glaesemann, A. W. Gotz, J. Hammond,
       V. Helms, E. D. Hermes, K. Hirao, S. Hirata, M. Jacquelin, L. Jensen,
   B. G. Johnson, H. Jonsson, R. A. Kendall, M. Klemm, R. Kobayashi, V. Konkov,
      S. Krishnamoorthy, M. Krishnan, Z. Lin, R. D. Lins, R. J. Littlefield,
      A. J. Logsdail, K. Lopata, W. Ma, A. V. Marenich, J. Martin del Campo,
   D. Mejia-Rodriguez, J. E. Moore, J. M. Mullin, T. Nakajima, D. R. Nascimento,
    J. A. Nichols, P. J. Nichols, J. Nieplocha, A. Otero-de-la-Roza, B. Palmer,
    A. Panyala, T. Pirojsirikul, B. Peng, R. Peverati, J. Pittner, L. Pollack,
   R. M. Richard, P. Sadayappan, G. C. Schatz, W. A. Shelton, D. W. Silverstein,
   D. M. A. Smith, T. A. Soares, D. Song, M. Swart, H. L. Taylor, G. S. Thomas,
            V. Tipparaju, D. G. Truhlar, K. Tsemekhman, T. Van Voorhis,
      A. Vazquez-Mayagoitia, P. Verma, O. Villa, A. Vishnu, K. D. Vogiatzis,
        D. Wang, J. H. Weare, M. J. Williamson, T. L. Windus, K. Wolinski,
        A. T. Wong, Q. Wu, C. Yang, Q. Yu, M. Zacharias, Z. Zhang, Y. Zhao,
                                and R. J. Harrison
                        "NWChem: Past, present, and future
                         J. Chem. Phys. 152, 184102 (2020)
                               doi:10.1063/5.0004997

                                      AUTHORS
                                      -------
  E. Apra, E. J. Bylaska, N. Govind, K. Kowalski, M. Valiev, D. Mejia-Rodriguez,
       A. Kunitsa, N. P. Bauman, A. Panyala, W. A. de Jong, T. P. Straatsma,
   H. J. J. van Dam, D. Wang, T. L. Windus, J. Hammond, J. Autschbach, A. Woods,
    K. Bhaskaran-Nair, J. Brabec, K. Lopata, S. A. Fischer, S. Krishnamoorthy,
     M. Jacquelin, W. Ma, M. Klemm, O. Villa, Y. Chen, V. Anisimov, F. Aquino,
     S. Hirata, M. T. Hackler, E. Hermes, L. Jensen, J. E. Moore, J. C. Becca,
      V. Konjkov, T. Risthaus, M. Malagoli, A. Marenich, A. Otero-de-la-Roza,
        J. Mullin, P. Nichols, R. Peverati, J. Pittner, Y. Zhao, P.-D. Fan,
        A. Fonari, M. J. Williamson, R. J. Harrison, J. R. Rehr, M. Dupuis,
     D. Silverstein, D. M. A. Smith, J. Nieplocha, V. Tipparaju, M. Krishnan,
     B. E. Van Kuiken, A. Vazquez-Mayagoitia, M. Swart, Q. Wu, T. Van Voorhis,
     A. A. Auer, M. Nooijen, L. D. Crosby, E. Brown, G. Cisneros, G. I. Fann,
   H. Fruchtl, J. Garza, K. Hirao, R. A. Kendall, J. A. Nichols, K. Tsemekhman,
    K. Wolinski, J. Anchell, D. E. Bernholdt, P. Borowski, T. Clark, D. Clerc,
   H. Dachsel, M. J. O. Deegan, K. Dyall, D. Elwood, E. Glendening, M. Gutowski,
   A. C. Hess, J. Jaffe, B. G. Johnson, J. Ju, R. Kobayashi, R. Kutteh, Z. Lin,
   R. Littlefield, X. Long, B. Meng, T. Nakajima, S. Niu, L. Pollack, M. Rosing,
   K. Glaesemann, G. Sandrone, M. Stave, H. Taylor, G. Thomas, J. H. van Lenthe,
                               A. T. Wong, Z. Zhang.

 Total times  cpu:       31.8s     wall:       31.8s
