 argument  1 = /var/folders/v1/k9l8hql13n1gcrjl_yh_gs5m0000gn/T/tmpm9ha5f3t/input_B_AB.txt
                                         
                                         


             Northwest Computational Chemistry Package (NWChem) 7.2.3
             --------------------------------------------------------


                    Environmental Molecular Sciences Laboratory
                       Pacific Northwest National Laboratory
                                Richland, WA 99352

                              Copyright (c) 1994-2022
                       Pacific Northwest National Laboratory
                            Battelle Memorial Institute

             NWChem is an open-source computational chemistry package
                        distributed under the terms of the
                      Educational Community License (ECL) 2.0
             A copy of the license is included with this distribution
                              in the LICENSE.TXT file

                                  ACKNOWLEDGMENT
                                  --------------

            This software and its documentation were developed at the
            EMSL at Pacific Northwest National Laboratory, a multiprogram
            national laboratory, operated for the U.S. Department of Energy
            by Battelle under Contract Number DE-AC05-76RL01830. Support
            for this work was provided by the Department of Energy Office
            of Biological and Environmental Research, Office of Basic
            Energy Sciences, and the Office of Advanced Scientific Computing.


           Job information
           ---------------

    hostname        = visitor-wireless1-147-155-221-109.ameslab.gov
    program         = nwchem
    date            = Wed Jul  2 12:10:42 2025

    compiled        = Thu_Dec_26_16:03:44_2024
    source          = /private/tmp/nwchem-20241226-24280-orrtsi/nwchem-7.2.3
    nwchem branch   = 7.2.3
    nwchem revision = d690e065
    ga revision     = 5.8.0
    use scalapack   = T
    input           = /var/folders/v1/k9l8hql13n1gcrjl_yh_gs5m0000gn/T/tmpm9ha5f3t/input_B_AB.txt
    prefix          = input_B_AB.
    data base       = ./input_B_AB.db
    status          = startup
    nproc           =        8
    time left       =     -1s



           Memory information
           ------------------

    heap     =  536870908 doubles =   4096.0 Mbytes
    stack    =  536870913 doubles =   4096.0 Mbytes
    global   = 1073741824 doubles =   8192.0 Mbytes (distinct from heap & stack)
    total    = 2147483645 doubles =  16384.0 Mbytes
    verify   = yes
    hardfail = no 


           Directory information
           ---------------------

  0 permanent = .
  0 scratch   = .




                                NWChem Input Module
                                -------------------



 Scaling coordinates for geometry "geometry" by  1.889725989
 (inverse scale =  0.529177249)

 CS  symmetry detected


                             Geometry "geometry" -> ""
                             -------------------------

 Output coordinates in angstroms (scale by  1.889725989 to convert to a.u.)

  No.       Tag          Charge          X              Y              Z
 ---- ---------------- ---------- -------------- -------------- --------------
    1 bqO                  0.0000    -0.43384711    -1.70547489     0.00000000
    2 bqH                  0.0000     0.15491235    -1.79058009    -0.76110781
    3 bqH                  0.0000     0.15491235    -1.79058009     0.76110781
    4 O                    8.0000     0.11774606    -0.01701824     0.00000000
    5 H                    1.0000    -0.47098425     0.06807297    -0.76106845
    6 H                    1.0000    -0.47098425     0.06807297     0.76106845

      Atomic Mass 
      ----------- 

      O                 15.994910
      H                  1.007825


 Effective nuclear repulsion energy (a.u.)       9.1129029190

            Nuclear Dipole moment (a.u.) 
            ----------------------------
        X                 Y               Z
 ---------------- ---------------- ----------------
     0.0000000000     0.0000000000     0.0000000000

      Symmetry information
      --------------------

 Group name             Cs        
 Group number              2
 Group order               2
 No. of unique centers     4

      Symmetry unique atoms

     1    2    4    5


            XYZ format geometry
            -------------------
     6
 geometry
 bqO                  -0.43384711    -1.70547489     0.00000000
 bqH                   0.15491235    -1.79058009    -0.76110781
 bqH                   0.15491235    -1.79058009     0.76110781
 O                     0.11774606    -0.01701824     0.00000000
 H                    -0.47098425     0.06807297    -0.76106845
 H                    -0.47098425     0.06807297     0.76106845

 ==============================================================================
                                internuclear distances
 ------------------------------------------------------------------------------
       center one      |      center two      | atomic units |  angstroms
 ------------------------------------------------------------------------------
    2 bqH              |   1 bqO              |     1.82548  |     0.96601
    3 bqH              |   1 bqO              |     1.82548  |     0.96601
    3 bqH              |   2 bqH              |     2.87657  |     1.52222
    4 O                |   1 bqO              |     3.35667  |     1.77627
    4 O                |   2 bqH              |     3.64780  |     1.93033
    4 O                |   3 bqH              |     3.64780  |     1.93033
    5 H                |   1 bqO              |     3.64775  |     1.93030
    5 H                |   2 bqH              |     3.70615  |     1.96121
    5 H                |   3 bqH              |     4.69145  |     2.48261
    5 H                |   4 O                |     1.82539  |     0.96596
    6 H                |   1 bqO              |     3.64775  |     1.93030
    6 H                |   2 bqH              |     4.69145  |     2.48261
    6 H                |   3 bqH              |     3.70615  |     1.96121
    6 H                |   4 O                |     1.82539  |     0.96596
 ------------------------------------------------------------------------------
                         number of included internuclear distances:         14
 ==============================================================================



 ==============================================================================
                                 internuclear angles
 ------------------------------------------------------------------------------
        center 1       |       center 2       |       center 3       |  degrees
 ------------------------------------------------------------------------------
    2 bqH              |   1 bqO              |   3 bqH              |   103.98
    2 bqH              |   1 bqO              |   4 O                |    83.94
    2 bqH              |   1 bqO              |   5 H                |    77.41
    2 bqH              |   1 bqO              |   6 H                |   113.79
    3 bqH              |   1 bqO              |   4 O                |    83.94
    3 bqH              |   1 bqO              |   5 H                |   113.79
    3 bqH              |   1 bqO              |   6 H                |    77.41
    1 bqO              |   4 O                |   5 H                |    83.94
    1 bqO              |   4 O                |   6 H                |    83.94
    5 H                |   1 bqO              |   6 H                |    46.44
    2 bqH              |   1 bqO              |   3 bqH              |   103.98
    2 bqH              |   1 bqO              |   4 O                |    83.94
    2 bqH              |   1 bqO              |   5 H                |    77.41
    2 bqH              |   1 bqO              |   6 H                |   113.79
    2 bqH              |   4 O                |   3 bqH              |    46.44
    3 bqH              |   2 bqH              |   5 H                |    90.00
    2 bqH              |   3 bqH              |   6 H                |    90.00
    2 bqH              |   4 O                |   5 H                |    77.41
    2 bqH              |   4 O                |   6 H                |   113.79
    5 H                |   2 bqH              |   6 H                |    37.82
    3 bqH              |   1 bqO              |   2 bqH              |   103.98
    3 bqH              |   1 bqO              |   4 O                |    83.94
    3 bqH              |   1 bqO              |   5 H                |   113.79
    3 bqH              |   1 bqO              |   6 H                |    77.41
    3 bqH              |   4 O                |   2 bqH              |    46.44
    3 bqH              |   2 bqH              |   5 H                |    90.00
    2 bqH              |   3 bqH              |   6 H                |    90.00
    3 bqH              |   4 O                |   5 H                |   113.79
    3 bqH              |   4 O                |   6 H                |    77.41
    5 H                |   3 bqH              |   6 H                |    37.82
    4 O                |   1 bqO              |   2 bqH              |    83.94
    4 O                |   1 bqO              |   3 bqH              |    83.94
    1 bqO              |   4 O                |   5 H                |    83.94
    1 bqO              |   4 O                |   6 H                |    83.94
    2 bqH              |   4 O                |   3 bqH              |    46.44
    2 bqH              |   4 O                |   5 H                |    77.41
    2 bqH              |   4 O                |   6 H                |   113.79
    3 bqH              |   4 O                |   5 H                |   113.79
    3 bqH              |   4 O                |   6 H                |    77.41
    5 H                |   4 O                |   6 H                |   103.98
    5 H                |   1 bqO              |   2 bqH              |    77.41
    5 H                |   1 bqO              |   3 bqH              |   113.79
    5 H                |   4 O                |   1 bqO              |    83.94
    5 H                |   2 bqH              |   3 bqH              |    90.00
    5 H                |   4 O                |   2 bqH              |    77.41
    5 H                |   4 O                |   3 bqH              |   113.79
    6 H                |   1 bqO              |   2 bqH              |   113.79
    6 H                |   1 bqO              |   3 bqH              |    77.41
    6 H                |   4 O                |   1 bqO              |    83.94
    6 H                |   3 bqH              |   2 bqH              |    90.00
    6 H                |   4 O                |   2 bqH              |   113.79
    6 H                |   4 O                |   3 bqH              |    77.41
 ------------------------------------------------------------------------------
                            number of included internuclear angles:         52
 ==============================================================================



  library name resolved from: environment
  library file name is: </opt/homebrew/Caskroom/mambaforge/base/envs/ames/share/nwchem/libraries/>
  
                      Basis "ao basis" -> "" (spherical)
                      -----
  bqO
  ---
            Exponent  Coefficients 
       -------------- ---------------------------------------------------------
  1 S  1.17200000E+04  0.000710
  1 S  1.75900000E+03  0.005470
  1 S  4.00800000E+02  0.027837
  1 S  1.13700000E+02  0.104800
  1 S  3.70300000E+01  0.283062
  1 S  1.32700000E+01  0.448719
  1 S  5.02500000E+00  0.270952
  1 S  1.01300000E+00  0.015458

  2 S  1.17200000E+04 -0.000160
  2 S  1.75900000E+03 -0.001263
  2 S  4.00800000E+02 -0.006267
  2 S  1.13700000E+02 -0.025716
  2 S  3.70300000E+01 -0.070924
  2 S  1.32700000E+01 -0.165411
  2 S  5.02500000E+00 -0.116955
  2 S  1.01300000E+00  0.557368

  3 S  3.02300000E-01  1.000000

  4 S  7.89600000E-02  1.000000

  5 P  1.77000000E+01  0.043018
  5 P  3.85400000E+00  0.228913
  5 P  1.04600000E+00  0.508728

  6 P  2.75300000E-01  1.000000

  7 P  6.85600000E-02  1.000000

  8 D  1.18500000E+00  1.000000

  9 D  3.32000000E-01  1.000000

  bqH
  ---
            Exponent  Coefficients 
       -------------- ---------------------------------------------------------
  1 S  1.30100000E+01  0.019685
  1 S  1.96200000E+00  0.137977
  1 S  4.44600000E-01  0.478148

  2 S  1.22000000E-01  1.000000

  3 S  2.97400000E-02  1.000000

  4 P  7.27000000E-01  1.000000

  5 P  1.41000000E-01  1.000000

  O (Oxygen)
  ----------
            Exponent  Coefficients 
       -------------- ---------------------------------------------------------
  1 S  1.17200000E+04  0.000710
  1 S  1.75900000E+03  0.005470
  1 S  4.00800000E+02  0.027837
  1 S  1.13700000E+02  0.104800
  1 S  3.70300000E+01  0.283062
  1 S  1.32700000E+01  0.448719
  1 S  5.02500000E+00  0.270952
  1 S  1.01300000E+00  0.015458

  2 S  1.17200000E+04 -0.000160
  2 S  1.75900000E+03 -0.001263
  2 S  4.00800000E+02 -0.006267
  2 S  1.13700000E+02 -0.025716
  2 S  3.70300000E+01 -0.070924
  2 S  1.32700000E+01 -0.165411
  2 S  5.02500000E+00 -0.116955
  2 S  1.01300000E+00  0.557368

  3 S  3.02300000E-01  1.000000

  4 S  7.89600000E-02  1.000000

  5 P  1.77000000E+01  0.043018
  5 P  3.85400000E+00  0.228913
  5 P  1.04600000E+00  0.508728

  6 P  2.75300000E-01  1.000000

  7 P  6.85600000E-02  1.000000

  8 D  1.18500000E+00  1.000000

  9 D  3.32000000E-01  1.000000

  H (Hydrogen)
  ------------
            Exponent  Coefficients 
       -------------- ---------------------------------------------------------
  1 S  1.30100000E+01  0.019685
  1 S  1.96200000E+00  0.137977
  1 S  4.44600000E-01  0.478148

  2 S  1.22000000E-01  1.000000

  3 S  2.97400000E-02  1.000000

  4 P  7.27000000E-01  1.000000

  5 P  1.41000000E-01  1.000000



 Summary of "ao basis" -> "" (spherical)
 ------------------------------------------------------------------------------
       Tag                 Description            Shells   Functions and Types
 ---------------- ------------------------------  ------  ---------------------
 bqO                      aug-cc-pvdz                9       23   4s3p2d
 bqH                      aug-cc-pvdz                5        9   3s2p
 O                        aug-cc-pvdz                9       23   4s3p2d
 H                        aug-cc-pvdz                5        9   3s2p


                                 NWChem SCF Module
                                 -----------------



  ao basis        = "ao basis"
  functions       =    82
  atoms           =     6
  closed shells   =     5
  open shells     =     0
  charge          =   0.00
  wavefunction    = RHF 
  input vectors   = atomic
  output vectors  = ./input_B_AB.movecs
  use symmetry    = T
  symmetry adapt  = T


 Summary of "ao basis" -> "ao basis" (spherical)
 ------------------------------------------------------------------------------
       Tag                 Description            Shells   Functions and Types
 ---------------- ------------------------------  ------  ---------------------
 bqO                      aug-cc-pvdz                9       23   4s3p2d
 bqH                      aug-cc-pvdz                5        9   3s2p
 O                        aug-cc-pvdz                9       23   4s3p2d
 H                        aug-cc-pvdz                5        9   3s2p


      Symmetry analysis of basis
      --------------------------

        a'         50
        a"         32


 Forming initial guess at       0.1s


      Superposition of Atomic Density Guess
      -------------------------------------

 Sum of atomic energies:         -75.76548395

      Non-variational initial energy
      ------------------------------

 Total energy =     -75.913826
 1-e energy   =    -121.521155
 2-e energy   =      36.494426
 HOMO         =      -0.480540
 LUMO         =       0.010747


      Symmetry analysis of molecular orbitals - initial
      -------------------------------------------------

  Numbering of irreducible representations: 

     1 a'          2 a"      

  Orbital symmetries:

     1 a'          2 a'          3 a"          4 a'          5 a'      
     6 a'          7 a"          8 a'          9 a"         10 a'      
    11 a'         12 a'         13 a"         14 a'         15 a"      


 Starting SCF solution at       0.1s



 ----------------------------------------------
         Quadratically convergent ROHF

 Convergence threshold     :          1.000E-06
 Maximum no. of iterations :           30
 Final Fock-matrix accuracy:          1.000E-08
 ----------------------------------------------


 Integral file          = ./input_B_AB.aoints.0
 Record size in doubles =  65536        No. of integs per rec  =  43688
 Max. records in memory =     17        Max. records in file   =    943
 No. of bits per label  =      8        No. of bits per value  =     64


 #quartets = 1.546D+05 #integrals = 3.175D+06 #direct =  0.0% #cached =100.0%


File balance: exchanges=    15  moved=    10  time=   0.0


              iter       energy          gnorm     gmax       time
             ----- ------------------- --------- --------- --------
                 1      -76.0065430541  8.26D-01  2.13D-01      0.3
                 2      -76.0392667983  1.76D-01  6.61D-02      0.4
                 3      -76.0414725778  1.54D-02  5.50D-03      0.6
                 4      -76.0414942877  6.35D-05  1.64D-05      0.7
                 5      -76.0414942881  3.35D-08  1.02D-08      0.8


       Final RHF  results 
       ------------------ 

         Total SCF energy =    -76.041494288106
      One-electron energy =   -122.831957484471
      Two-electron energy =     37.677560277409
 Nuclear repulsion energy =      9.112902918956

        Time for solution =      0.7s



       Symmetry analysis of molecular orbitals - final
       -----------------------------------------------

  Numbering of irreducible representations: 

     1 a'          2 a"      

  Orbital symmetries:

     1 a'          2 a'          3 a"          4 a'          5 a'      
     6 a'          7 a"          8 a'          9 a"         10 a'      
    11 a'         12 a'         13 a"         14 a'         15 a"      

             Final eigenvalues
             -----------------

              1      
    1  -20.5796
    2   -1.3523
    3   -0.7132
    4   -0.5846
    5   -0.5087
    6    0.0332
    7    0.0557
    8    0.0595
    9    0.0888
   10    0.1287
   11    0.1824
   12    0.1927
   13    0.1979
   14    0.2025
   15    0.2308

                       ROHF Final Molecular Orbital Analysis
                       -------------------------------------

 Vector    2  Occ=2.000000D+00  E=-1.352280D+00  Symmetry=a'
              MO Center= -4.8D-02,  6.9D-03, -2.7D-18, r^2= 5.0D-01
   Bfn.  Coefficient  Atom+Function         Bfn.  Coefficient  Atom+Function  
  ----- ------------  ---------------      ----- ------------  ---------------
    43      0.446992  4 O  s                 44      0.389312  4 O  s          
    65      0.204212  5 H  s                 74      0.204212  6 H  s          

 Vector    3  Occ=2.000000D+00  E=-7.131948D-01  Symmetry=a"
              MO Center= -9.4D-02,  1.3D-02, -2.2D-15, r^2= 7.7D-01
   Bfn.  Coefficient  Atom+Function         Bfn.  Coefficient  Atom+Function  
  ----- ------------  ---------------      ----- ------------  ---------------
    48      0.499009  4 O  pz                65     -0.349430  5 H  s          
    74      0.349430  6 H  s                 51      0.203687  4 O  pz         

 Vector    4  Occ=2.000000D+00  E=-5.845875D-01  Symmetry=a'
              MO Center=  1.5D-01, -2.2D-02,  1.3D-16, r^2= 7.3D-01
   Bfn.  Coefficient  Atom+Function         Bfn.  Coefficient  Atom+Function  
  ----- ------------  ---------------      ----- ------------  ---------------
    46      0.541731  4 O  px                49      0.323084  4 O  px         
    44      0.317618  4 O  s                 65     -0.212543  5 H  s          
    74     -0.212543  6 H  s                 43      0.151959  4 O  s          

 Vector    5  Occ=2.000000D+00  E=-5.087422D-01  Symmetry=a'
              MO Center=  7.8D-02, -1.1D-02, -3.5D-16, r^2= 6.8D-01
   Bfn.  Coefficient  Atom+Function         Bfn.  Coefficient  Atom+Function  
  ----- ------------  ---------------      ----- ------------  ---------------
    47      0.619814  4 O  py                50      0.469396  4 O  py         

 Vector    6  Occ=0.000000D+00  E= 3.324234D-02  Symmetry=a'
              MO Center= -8.3D-01, -2.8D-01, -4.6D-16, r^2= 1.2D+01
   Bfn.  Coefficient  Atom+Function         Bfn.  Coefficient  Atom+Function  
  ----- ------------  ---------------      ----- ------------  ---------------
     4      1.385872  1 bq s                 67     -0.699723  5 H  s          
    76     -0.699723  6 H  s                 45      0.635810  4 O  s          
    25     -0.396432  2 bq s                 34     -0.396432  3 bq s          
    11      0.312035  1 bq px                66     -0.282425  5 H  s          
    75     -0.282425  6 H  s                 53      0.226049  4 O  py         

 Vector    7  Occ=0.000000D+00  E= 5.570816D-02  Symmetry=a"
              MO Center= -4.8D-01, -3.7D-01, -1.7D-15, r^2= 1.7D+01
   Bfn.  Coefficient  Atom+Function         Bfn.  Coefficient  Atom+Function  
  ----- ------------  ---------------      ----- ------------  ---------------
    67      2.300951  5 H  s                 76     -2.300951  6 H  s          
    26      1.002664  2 bq s                 35     -1.002664  3 bq s          
    54      0.736780  4 O  pz                66      0.525198  5 H  s          
    75     -0.525198  6 H  s                 13      0.397234  1 bq pz         
    25      0.361064  2 bq s                 34     -0.361064  3 bq s          

 Vector    8  Occ=0.000000D+00  E= 5.950567D-02  Symmetry=a'
              MO Center= -3.5D-02, -1.6D+00,  4.2D-16, r^2= 1.7D+01
   Bfn.  Coefficient  Atom+Function         Bfn.  Coefficient  Atom+Function  
  ----- ------------  ---------------      ----- ------------  ---------------
     4      1.487880  1 bq s                 26     -1.388139  2 bq s          
    35     -1.388139  3 bq s                 67      1.221936  5 H  s          
    76      1.221936  6 H  s                 45     -0.929433  4 O  s          
    25     -0.562104  2 bq s                 34     -0.562104  3 bq s          
    11      0.472925  1 bq px                53     -0.294371  4 O  py         

 Vector    9  Occ=0.000000D+00  E= 8.875468D-02  Symmetry=a"
              MO Center=  8.0D-02, -1.4D+00,  2.1D-15, r^2= 1.9D+01
   Bfn.  Coefficient  Atom+Function         Bfn.  Coefficient  Atom+Function  
  ----- ------------  ---------------      ----- ------------  ---------------
    26      4.281997  2 bq s                 35     -4.281997  3 bq s          
    67     -3.768100  5 H  s                 76      3.768100  6 H  s          
    13      0.588648  1 bq pz                25      0.428609  2 bq s          
    34     -0.428609  3 bq s                 54     -0.426843  4 O  pz         
    66     -0.286640  5 H  s                 75      0.286640  6 H  s          

 Vector   10  Occ=0.000000D+00  E= 1.286924D-01  Symmetry=a'
              MO Center= -8.0D-02, -1.2D+00,  2.8D-15, r^2= 1.0D+01
   Bfn.  Coefficient  Atom+Function         Bfn.  Coefficient  Atom+Function  
  ----- ------------  ---------------      ----- ------------  ---------------
    45      5.697083  4 O  s                  4     -4.271444  1 bq s          
    11     -1.760646  1 bq px                12     -1.517507  1 bq py         
    53     -1.504633  4 O  py                52     -1.370552  4 O  px         
    66     -1.311392  5 H  s                 75     -1.311392  6 H  s          
    25      0.948283  2 bq s                 34      0.948283  3 bq s          

 Vector   11  Occ=0.000000D+00  E= 1.823695D-01  Symmetry=a'
              MO Center= -4.3D-01, -1.1D+00,  1.7D-14, r^2= 1.0D+01
   Bfn.  Coefficient  Atom+Function         Bfn.  Coefficient  Atom+Function  
  ----- ------------  ---------------      ----- ------------  ---------------
     4      4.789701  1 bq s                 45      2.931110  4 O  s          
    11      1.910668  1 bq px                25     -1.919961  2 bq s          
    34     -1.919961  3 bq s                 66     -1.531651  5 H  s          
    75     -1.531651  6 H  s                 52     -1.354872  4 O  px         
    67     -0.492717  5 H  s                 76     -0.492717  6 H  s          

 Vector   12  Occ=0.000000D+00  E= 1.927075D-01  Symmetry=a'
              MO Center= -2.6D-01, -1.2D+00, -1.2D-14, r^2= 1.0D+01
   Bfn.  Coefficient  Atom+Function         Bfn.  Coefficient  Atom+Function  
  ----- ------------  ---------------      ----- ------------  ---------------
    45      3.187516  4 O  s                  4     -2.861473  1 bq s          
    52     -1.546829  4 O  px                66     -1.458723  5 H  s          
    75     -1.458723  6 H  s                 12      1.219433  1 bq py         
    53     -1.100703  4 O  py                26      0.890419  2 bq s          
    35      0.890419  3 bq s                 67     -0.568694  5 H  s          

 Vector   13  Occ=0.000000D+00  E= 1.978796D-01  Symmetry=a"
              MO Center= -6.4D-01, -1.6D+00, -7.8D-15, r^2= 9.6D+00
   Bfn.  Coefficient  Atom+Function         Bfn.  Coefficient  Atom+Function  
  ----- ------------  ---------------      ----- ------------  ---------------
    13      3.058877  1 bq pz                26      2.293256  2 bq s          
    35     -2.293256  3 bq s                 25      2.042512  2 bq s          
    34     -2.042512  3 bq s                 54     -0.591350  4 O  pz         
    30     -0.387207  2 bq px                39      0.387207  3 bq px         
    10      0.293479  1 bq pz                32      0.274162  2 bq pz         

 Vector   14  Occ=0.000000D+00  E= 2.025437D-01  Symmetry=a'
              MO Center= -2.4D-01, -6.6D-01,  1.0D-13, r^2= 9.4D+00
   Bfn.  Coefficient  Atom+Function         Bfn.  Coefficient  Atom+Function  
  ----- ------------  ---------------      ----- ------------  ---------------
    45      3.103113  4 O  s                  4     -2.686771  1 bq s          
    52     -2.031494  4 O  px                12     -1.801182  1 bq py         
    66     -1.067626  5 H  s                 75     -1.067626  6 H  s          
    11      0.861273  1 bq px                53     -0.692889  4 O  py         
    67      0.476375  5 H  s                 76      0.476375  6 H  s          

 Vector   15  Occ=0.000000D+00  E= 2.307861D-01  Symmetry=a"
              MO Center=  2.7D-01,  1.1D-01, -8.5D-14, r^2= 9.9D+00
   Bfn.  Coefficient  Atom+Function         Bfn.  Coefficient  Atom+Function  
  ----- ------------  ---------------      ----- ------------  ---------------
    54      3.339197  4 O  pz                66      2.634833  5 H  s          
    75     -2.634833  6 H  s                 67      2.593609  5 H  s          
    76     -2.593609  6 H  s                 73      0.541758  5 H  pz         
    82      0.541758  6 H  pz                71      0.525147  5 H  px         
    80     -0.525147  6 H  px                13     -0.479062  1 bq pz         

 Vector   16  Occ=0.000000D+00  E= 2.368928D-01  Symmetry=a'
              MO Center=  1.1D-01,  7.6D-02,  1.4D-15, r^2= 1.0D+01
   Bfn.  Coefficient  Atom+Function         Bfn.  Coefficient  Atom+Function  
  ----- ------------  ---------------      ----- ------------  ---------------
    45     -2.034057  4 O  s                 53     -2.007280  4 O  py         
     4      1.868318  1 bq s                 25     -1.170961  2 bq s          
    34     -1.170961  3 bq s                 67      1.155620  5 H  s          
    76      1.155620  6 H  s                 26     -0.957832  2 bq s          
    35     -0.957832  3 bq s                 11      0.773466  1 bq px         

 Vector   17  Occ=0.000000D+00  E= 3.077951D-01  Symmetry=a"
              MO Center= -3.7D-01, -3.1D-01,  6.2D-15, r^2= 6.6D+00
   Bfn.  Coefficient  Atom+Function         Bfn.  Coefficient  Atom+Function  
  ----- ------------  ---------------      ----- ------------  ---------------
    26      2.025429  2 bq s                 35     -2.025429  3 bq s          
    67     -1.517472  5 H  s                 76      1.517472  6 H  s          
    25      0.985544  2 bq s                 34     -0.985544  3 bq s          
    13      0.977968  1 bq pz                73     -0.674523  5 H  pz         
    82     -0.674523  6 H  pz                71     -0.598652  5 H  px         

 Vector   18  Occ=0.000000D+00  E= 3.113722D-01  Symmetry=a'
              MO Center= -5.5D-01, -7.0D-01, -1.6D-15, r^2= 6.7D+00
   Bfn.  Coefficient  Atom+Function         Bfn.  Coefficient  Atom+Function  
  ----- ------------  ---------------      ----- ------------  ---------------
     4      6.554892  1 bq s                 45     -3.793782  4 O  s          
    12      2.747361  1 bq py                53      2.081101  4 O  py         
    25     -1.441932  2 bq s                 34     -1.441932  3 bq s          
    11      1.136262  1 bq px                66     -0.658301  5 H  s          
    75     -0.658301  6 H  s                 73      0.484023  5 H  pz         

 Vector   19  Occ=0.000000D+00  E= 3.463447D-01  Symmetry=a'
              MO Center=  1.8D-01, -6.1D-01,  5.4D-16, r^2= 5.8D+00
   Bfn.  Coefficient  Atom+Function         Bfn.  Coefficient  Atom+Function  
  ----- ------------  ---------------      ----- ------------  ---------------
    45      5.977291  4 O  s                  4     -2.989389  1 bq s          
    53     -2.024421  4 O  py                12     -1.701859  1 bq py         
    66     -1.329027  5 H  s                 75     -1.329027  6 H  s          
    71     -0.741653  5 H  px                80     -0.741653  6 H  px         
    11     -0.441684  1 bq px                26     -0.378297  2 bq s          

 Vector   20  Occ=0.000000D+00  E= 4.115462D-01  Symmetry=a"
              MO Center= -1.8D-01, -1.3D+00,  2.3D-16, r^2= 6.6D+00
   Bfn.  Coefficient  Atom+Function         Bfn.  Coefficient  Atom+Function  
  ----- ------------  ---------------      ----- ------------  ---------------
    13      2.131766  1 bq pz                54      1.122783  4 O  pz         
    67      1.028216  5 H  s                 76     -1.028216  6 H  s          
    25      0.991692  2 bq s                 34     -0.991692  3 bq s          
    32     -0.943594  2 bq pz                41     -0.943594  3 bq pz         
    66      0.753776  5 H  s                 75     -0.753776  6 H  s          

 Vector   21  Occ=0.000000D+00  E= 4.292248D-01  Symmetry=a'
              MO Center= -2.9D-02, -1.2D+00,  1.5D-15, r^2= 6.4D+00
   Bfn.  Coefficient  Atom+Function         Bfn.  Coefficient  Atom+Function  
  ----- ------------  ---------------      ----- ------------  ---------------
     4      6.998389  1 bq s                 45     -6.531581  4 O  s          
    25     -2.710551  2 bq s                 34     -2.710551  3 bq s          
    11      2.288250  1 bq px                66      2.026727  5 H  s          
    75      2.026727  6 H  s                 52      1.280716  4 O  px         
    53      1.049286  4 O  py                12      0.817948  1 bq py         

 Vector   22  Occ=0.000000D+00  E= 4.550985D-01  Symmetry=a"
              MO Center= -1.2D-01, -9.2D-01,  3.0D-16, r^2= 6.1D+00
   Bfn.  Coefficient  Atom+Function         Bfn.  Coefficient  Atom+Function  
  ----- ------------  ---------------      ----- ------------  ---------------
    66      1.798408  5 H  s                 75     -1.798408  6 H  s          
    25      0.849777  2 bq s                 34     -0.849777  3 bq s          
    72      0.815374  5 H  py                81     -0.815374  6 H  py         
    73      0.691171  5 H  pz                82      0.691171  6 H  pz         
    31     -0.648894  2 bq py                40      0.648894  3 bq py         

 Vector   23  Occ=0.000000D+00  E= 4.721143D-01  Symmetry=a'
              MO Center= -2.0D-01, -1.3D+00,  2.2D-15, r^2= 5.8D+00
   Bfn.  Coefficient  Atom+Function         Bfn.  Coefficient  Atom+Function  
  ----- ------------  ---------------      ----- ------------  ---------------
     4      8.729975  1 bq s                 45     -5.779539  4 O  s          
    25     -2.890112  2 bq s                 34     -2.890112  3 bq s          
    12      1.713064  1 bq py                53      1.372224  4 O  py         
    66      1.118147  5 H  s                 75      1.118147  6 H  s          
    30      1.034217  2 bq px                39      1.034217  3 bq px         

 Vector   24  Occ=0.000000D+00  E= 5.024081D-01  Symmetry=a'
              MO Center=  5.3D-02, -1.4D+00, -8.4D-15, r^2= 6.3D+00
   Bfn.  Coefficient  Atom+Function         Bfn.  Coefficient  Atom+Function  
  ----- ------------  ---------------      ----- ------------  ---------------
     4      6.828931  1 bq s                 45      4.908442  4 O  s          
    25     -4.134152  2 bq s                 34     -4.134152  3 bq s          
    66     -2.844262  5 H  s                 75     -2.844262  6 H  s          
    11      2.056550  1 bq px                52     -1.705841  4 O  px         
    32     -0.957643  2 bq pz                41      0.957643  3 bq pz         


 center of mass
 --------------
 x =   0.09799811 y =  -0.01416400 z =   0.00000000

 moments of inertia (a.u.)
 ------------------
           4.215556710422           0.320234795166           0.000000000000
           0.320234795166           6.384917071391           0.000000000000
           0.000000000000           0.000000000000           2.261929634600

  Mulliken analysis of the total density
  --------------------------------------

    Atom       Charge   Shell Charges
 -----------   ------   -------------------------------------------------------
    1 X    0    -0.00   0.00  0.00  0.00  0.02 -0.00 -0.02 -0.00  0.00 -0.01
    2 X    0    -0.01   0.00 -0.01 -0.00 -0.00 -0.00
    3 X    0    -0.01   0.00 -0.01 -0.00 -0.00 -0.00
    4 O    8     8.37   2.00  0.84  0.83  0.07  2.81  1.69  0.13  0.01 -0.02
    5 H    1     0.83   0.72 -0.00 -0.00  0.08  0.03
    6 H    1     0.83   0.72 -0.00 -0.00  0.08  0.03

       Multipole analysis of the density wrt the origin
       ------------------------------------------------

     L   x y z        total         open         nuclear
     -   - - -        -----         ----         -------
     0   0 0 0     -0.000000      0.000000     10.000000

     1   1 0 0     -0.780072      0.000000      0.000000
     1   0 1 0      0.112683      0.000000      0.000000
     1   0 0 1      0.000000      0.000000      0.000000

     2   2 0 0     -4.669842      0.000000      1.980389
     2   1 1 0     -0.146398      0.000000     -0.286232
     2   1 0 1      0.000000      0.000000      0.000000
     2   0 2 0     -5.633700      0.000000      0.041370
     2   0 1 1      0.000000      0.000000      0.000000
     2   0 0 2     -3.178427      0.000000      4.136901


------------------------------------------------------------
EAF file 0: "./input_B_AB.aoints.0" size=1572864 bytes
------------------------------------------------------------
               write      read    awrite     aread      wait
               -----      ----    ------     -----      ----
     calls:        3         1         0         2         2
   data(b): 1.57e+06  5.24e+05  0.00e+00  1.05e+06
   time(s): 0.00e+00  0.00e+00  0.00e+00  0.00e+00  0.00e+00
rate(mb/s): 0.00e+00  0.00e+00
------------------------------------------------------------


 Parallel integral file used      77 records with       0 large values



                   Four-Index Transformation
                   -------------------------
          Number of basis functions:             82
          Number of shells:                      38
          Number of occupied orbitals:            5
          Number of occ. correlated orbitals:     5
          Block length:                          16
          Superscript MO index range:      1 -    5
          Subscript MO index range:        1 -   82
          MO coefficients read from:  ./input_B_AB.movecs      
          Number of operator matrices in core:   30
          Half-transformed integrals produced

     Pass:    1     Index range:    1  -    5     Time:      0.94
 ------------------------------------------
 MP2 Energy (coupled cluster initial guess)
 ------------------------------------------
 Reference energy:            -76.041494288105980
 MP2 Corr. energy:             -0.224460890740855
 Total MP2 energy:            -76.265955178846838


 ****************************************************************************
              the segmented parallel ccsd program:    8 nodes
 ****************************************************************************




 level of theory    ccsd(t)
 number of core         0
 number of occupied     5
 number of virtual     77
 number of deleted      0
 total functions       82
 number of shells      38
 basis label          566



   ***** ccsd parameters *****
   iprt   =     0
   convi  =  0.100E-05
   maxit  =    20
   mxvec  =     5
 memory           1073731948
  Using  1 OpenMP thread(s) in CCSD
  avail0,avail1,avail0-avail1                  3965                 3965                    0
  avail0,avail1,avail0-avail1                  3965                 3965                    0
  avail0,avail1,avail0-avail1                  3965                 3980                  -15
  avail0,avail1,avail0-avail1                  3965                 3980                  -15
  IO offset    20.000000000000000     
  IO error message >End of File
  file_read_ga: failing reading from ./input_B_AB.t2
  Failed reading restart vector from ./input_B_AB.t2
  Using MP2 initial guess vector 


-------------------------------------------------------------------------
 iter     correlation     delta       rms       T2     Non-T2      Main
             energy      energy      error      ampl     ampl      Block
                                                time     time      time
-------------------------------------------------------------------------
   1     -0.2260511217 -2.261D-01  1.467D-02     2.05     0.01     1.89
   2     -0.2307412405 -4.690D-03  3.216D-02     1.59     0.00     1.49
   3     -0.2311323266 -3.911D-04  4.146D-03     1.48     0.00     1.40
   4     -0.2317211705 -5.888D-04  4.065D-04     1.47     0.00     1.41
   5     -0.2317946516 -7.348D-05  1.105D-03     1.47     0.00     1.40
   6     -0.2317923912  2.260D-06  5.056D-05     1.40     0.00     1.33
   7     -0.2317928304 -4.391D-07  1.295D-04     1.58     0.00     1.51
   8     -0.2317926949  1.354D-07  1.108D-05     1.53     0.00     1.46
   9     -0.2317920952  5.998D-07  7.980D-06     1.65     0.00     1.57
  10     -0.2317921158 -2.060D-08  1.138D-06     1.69     0.00     1.60
  11     -0.2317921366 -2.084D-08  1.008D-06     1.54     0.00     1.46
  12     -0.2317921520 -1.545D-08  5.029D-08     2.00     0.00     1.94
                  *************converged*************
-------------------------------------------------------------------------

 -----------
 CCSD Energy
 -----------
 Reference energy:             -76.041494288105980
 CCSD corr. energy:             -0.231792152048218
 Total CCSD energy:            -76.273286440154195


 --------------------------------
 Spin Component Scaled (SCS) CCSD
 --------------------------------
 Same spin contribution:                 -0.050594156540536
 Same spin scaling factor:                1.130000000000000
 Opposite spin contribution:             -0.181197995507682
 Opposite spin scaling fact.:             1.270000000000000
 SCS-CCSD correlation energy:            -0.287292851185562
 Total SCS-CCSD energy:                 -76.328787139291549
 memory           1073731948


*********triples calculation*********

nkpass=    1; nvpass=    1; memdrv=         170401; memtrn=         942207; memavail=     1073731548
 memory available/node                     1073731548
 total number of virtual orbitals        77
 number of virtuals per integral pass    77
 number of integral evaluations           1
 number of occupied per triples pass      5
 number of triples passes                 1

 commencing integral evaluation        1 at          21.59
  symmetry use  T
task         2 out of       741 done   0%  at       0.0 secs
task        57 out of       741 done   7%  at       0.2 secs
task        83 out of       741 done  11%  at       0.3 secs
task       119 out of       741 done  16%  at       0.5 secs
task       166 out of       741 done  22%  at       0.5 secs
task       192 out of       741 done  25%  at       0.6 secs
task       238 out of       741 done  32%  at       0.7 secs
task       280 out of       741 done  37%  at       0.7 secs
task       297 out of       741 done  40%  at       0.7 secs
task       334 out of       741 done  45%  at       0.8 secs
task       411 out of       741 done  55%  at       0.8 secs
task       445 out of       741 done  60%  at       0.9 secs
task       488 out of       741 done  65%  at       0.9 secs
task       523 out of       741 done  70%  at       0.9 secs
task       559 out of       741 done  75%  at       1.0 secs
task       597 out of       741 done  80%  at       1.0 secs
task       636 out of       741 done  85%  at       1.0 secs
task       671 out of       741 done  90%  at       1.0 secs
task       707 out of       741 done  95%  at       1.1 secs
task       741 out of       741 done 100%  at       1.1 secs
 commencing triples evaluation - blocking       1
 ccsd(t): done        1 out of       77 progress:    1.3%
 ccsd(t): done        2 out of       77 progress:    2.6%
 ccsd(t): done        3 out of       77 progress:    3.9%
 ccsd(t): done        4 out of       77 progress:    5.2%
 ccsd(t): done        5 out of       77 progress:    6.5%
 ccsd(t): done        6 out of       77 progress:    7.8%
 ccsd(t): done        7 out of       77 progress:    9.1%
 ccsd(t): done        8 out of       77 progress:   10.4%
 ccsd(t): done        9 out of       77 progress:   11.7%
 ccsd(t): done       10 out of       77 progress:   13.0%
 ccsd(t): done       11 out of       77 progress:   14.3%
 ccsd(t): done       12 out of       77 progress:   15.6%
 ccsd(t): done       13 out of       77 progress:   16.9%
 ccsd(t): done       14 out of       77 progress:   18.2%
 ccsd(t): done       15 out of       77 progress:   19.5%
 ccsd(t): done       16 out of       77 progress:   20.8%
 ccsd(t): done       17 out of       77 progress:   22.1%
 ccsd(t): done       18 out of       77 progress:   23.4%
 ccsd(t): done       19 out of       77 progress:   24.7%
 ccsd(t): done       20 out of       77 progress:   26.0%
 ccsd(t): done       21 out of       77 progress:   27.3%
 ccsd(t): done       22 out of       77 progress:   28.6%
 ccsd(t): done       23 out of       77 progress:   29.9%
 ccsd(t): done       24 out of       77 progress:   31.2%
 ccsd(t): done       25 out of       77 progress:   32.5%
 ccsd(t): done       26 out of       77 progress:   33.8%
 ccsd(t): done       27 out of       77 progress:   35.1%
 ccsd(t): done       28 out of       77 progress:   36.4%
 ccsd(t): done       29 out of       77 progress:   37.7%
 ccsd(t): done       30 out of       77 progress:   39.0%
 ccsd(t): done       31 out of       77 progress:   40.3%
 ccsd(t): done       32 out of       77 progress:   41.6%
 ccsd(t): done       33 out of       77 progress:   42.9%
 ccsd(t): done       34 out of       77 progress:   44.2%
 ccsd(t): done       35 out of       77 progress:   45.5%
 ccsd(t): done       36 out of       77 progress:   46.8%
 ccsd(t): done       37 out of       77 progress:   48.1%
 ccsd(t): done       38 out of       77 progress:   49.4%
 ccsd(t): done       39 out of       77 progress:   50.6%
 ccsd(t): done       40 out of       77 progress:   51.9%
 ccsd(t): done       41 out of       77 progress:   53.2%
 ccsd(t): done       42 out of       77 progress:   54.5%
 ccsd(t): done       43 out of       77 progress:   55.8%
 ccsd(t): done       44 out of       77 progress:   57.1%
 ccsd(t): done       45 out of       77 progress:   58.4%
 ccsd(t): done       46 out of       77 progress:   59.7%
 ccsd(t): done       47 out of       77 progress:   61.0%
 ccsd(t): done       48 out of       77 progress:   62.3%
 ccsd(t): done       49 out of       77 progress:   63.6%
 ccsd(t): done       50 out of       77 progress:   64.9%
 ccsd(t): done       51 out of       77 progress:   66.2%
 ccsd(t): done       52 out of       77 progress:   67.5%
 ccsd(t): done       53 out of       77 progress:   68.8%
 ccsd(t): done       54 out of       77 progress:   70.1%
 ccsd(t): done       55 out of       77 progress:   71.4%
 ccsd(t): done       56 out of       77 progress:   72.7%
 ccsd(t): done       57 out of       77 progress:   74.0%
 ccsd(t): done       58 out of       77 progress:   75.3%
 ccsd(t): done       59 out of       77 progress:   76.6%
 ccsd(t): done       60 out of       77 progress:   77.9%
 ccsd(t): done       61 out of       77 progress:   79.2%
 ccsd(t): done       62 out of       77 progress:   80.5%
 ccsd(t): done       63 out of       77 progress:   81.8%
 ccsd(t): done       64 out of       77 progress:   83.1%
 ccsd(t): done       65 out of       77 progress:   84.4%
 ccsd(t): done       66 out of       77 progress:   85.7%
 ccsd(t): done       67 out of       77 progress:   87.0%
 ccsd(t): done       68 out of       77 progress:   88.3%
 ccsd(t): done       69 out of       77 progress:   89.6%
 ccsd(t): done       70 out of       77 progress:   90.9%
 ccsd(t): done       71 out of       77 progress:   92.2%
 ccsd(t): done       72 out of       77 progress:   93.5%
 ccsd(t): done       73 out of       77 progress:   94.8%
 ccsd(t): done       74 out of       77 progress:   96.1%
 ccsd(t): done       75 out of       77 progress:   97.4%
 ccsd(t): done       76 out of       77 progress:   98.7%
 ccsd(t): done       77 out of       77 progress:  100.0%
 Time for integral evaluation pass     1        1.11
 Time for triples evaluation pass      1        1.03

 pseudo-e(mp4)  -0.59395483942910E-02
 pseudo-e(mp5)   0.40975402507724E-03
        e(t)    -0.55297943692138E-02

 --------------
 CCSD(T) Energy
 --------------
 Reference energy:                     -76.041494288105980

 CCSD corr. energy:                     -0.231792152048218
 T(CCSD) corr. energy:                  -0.005939548394291
 Total CCSD+T(CCSD) energy:            -76.279225988548490

 CCSD corr. energy:                     -0.231792152048218
 (T) corr. energy:                      -0.005529794369214
 Total CCSD(T) energy:                 -76.278816234523418

 routine      calls  cpu(0)   cpu-min  cpu-ave  cpu-max   i/o 
 aoccsd          1     0.04     0.04     0.04     0.04    0.00
 iterdrv         1     0.14     0.14     0.14     0.14    0.00
 pampt          12     0.07     0.07     0.08     0.08    0.00
 t2pm           12     0.17     0.17     0.17     0.17    0.00
 sxy            12     2.17     0.37     1.44     2.17    0.00
 ints       778050     4.75     4.53     4.68     4.82    0.00
 f_write        12     0.06     0.03     0.06     0.09    0.00
 t2eri        1116     0.70     0.63     0.68     0.71    0.00
 idx2         1116    10.60    10.60    11.42    12.73    0.00
 idx34          12     0.01     0.01     0.01     0.01    0.00
 ht2pm          12     0.06     0.06     0.06     0.06    0.00
 itm            12     0.68     0.68     0.68     0.68    0.00
 pdiis          12     0.00     0.00     0.00     0.00    0.00
 r_read         66     0.03     0.02     0.02     0.03    0.00
 triples         1     0.01     0.01     0.01     0.01    0.00
 rdtrpo          1     0.00     0.00     0.00     0.00    0.00
 trpmos          1     1.11     1.11     1.11     1.11    0.00
 trpdrv          1     0.62     0.61     0.62     0.67    0.00
 dovvv        1470     0.30     0.27     0.30     0.32    0.00
 doooo        1470     0.04     0.03     0.03     0.04    0.00
 tengy        1225     0.06     0.06     0.07     0.07    0.00
 Total                21.63    21.62    21.63    21.64    0.00

 Task  times  cpu:       23.7s     wall:       23.7s


                                NWChem Input Module
                                -------------------


 Summary of allocated global arrays
-----------------------------------
  No active global arrays


MA_summarize_allocated_blocks: starting scan ...
MA_summarize_allocated_blocks: scan completed: 0 heap blocks, 0 stack blocks
MA usage statistics:

	allocation statistics:
					      heap	     stack
					      ----	     -----
	current number of blocks	         0	         0
	maximum number of blocks	        18	        42
	current total bytes		         0	         0
	maximum total bytes		   8936432	7731415912
	maximum total K-bytes		      8937	   7731416
	maximum total M-bytes		         9	      7732


                                     CITATION
                                     --------
                Please cite the following reference when publishing
                           results obtained with NWChem:

          E. Apra, E. J. Bylaska, W. A. de Jong, N. Govind, K. Kowalski,
       T. P. Straatsma, M. Valiev, H. J. J. van Dam, Y. Alexeev, J. Anchell,
       V. Anisimov, F. W. Aquino, R. Atta-Fynn, J. Autschbach, N. P. Bauman,
     J. C. Becca, D. E. Bernholdt, K. Bhaskaran-Nair, S. Bogatko, P. Borowski,
         J. Boschen, J. Brabec, A. Bruner, E. Cauet, Y. Chen, G. N. Chuev,
      C. J. Cramer, J. Daily, M. J. O. Deegan, T. H. Dunning Jr., M. Dupuis,
   K. G. Dyall, G. I. Fann, S. A. Fischer, A. Fonari, H. Fruchtl, L. Gagliardi,
      J. Garza, N. Gawande, S. Ghosh, K. Glaesemann, A. W. Gotz, J. Hammond,
       V. Helms, E. D. Hermes, K. Hirao, S. Hirata, M. Jacquelin, L. Jensen,
   B. G. Johnson, H. Jonsson, R. A. Kendall, M. Klemm, R. Kobayashi, V. Konkov,
      S. Krishnamoorthy, M. Krishnan, Z. Lin, R. D. Lins, R. J. Littlefield,
      A. J. Logsdail, K. Lopata, W. Ma, A. V. Marenich, J. Martin del Campo,
   D. Mejia-Rodriguez, J. E. Moore, J. M. Mullin, T. Nakajima, D. R. Nascimento,
    J. A. Nichols, P. J. Nichols, J. Nieplocha, A. Otero-de-la-Roza, B. Palmer,
    A. Panyala, T. Pirojsirikul, B. Peng, R. Peverati, J. Pittner, L. Pollack,
   R. M. Richard, P. Sadayappan, G. C. Schatz, W. A. Shelton, D. W. Silverstein,
   D. M. A. Smith, T. A. Soares, D. Song, M. Swart, H. L. Taylor, G. S. Thomas,
            V. Tipparaju, D. G. Truhlar, K. Tsemekhman, T. Van Voorhis,
      A. Vazquez-Mayagoitia, P. Verma, O. Villa, A. Vishnu, K. D. Vogiatzis,
        D. Wang, J. H. Weare, M. J. Williamson, T. L. Windus, K. Wolinski,
        A. T. Wong, Q. Wu, C. Yang, Q. Yu, M. Zacharias, Z. Zhang, Y. Zhao,
                                and R. J. Harrison
                        "NWChem: Past, present, and future
                         J. Chem. Phys. 152, 184102 (2020)
                               doi:10.1063/5.0004997

                                      AUTHORS
                                      -------
  E. Apra, E. J. Bylaska, N. Govind, K. Kowalski, M. Valiev, D. Mejia-Rodriguez,
       A. Kunitsa, N. P. Bauman, A. Panyala, W. A. de Jong, T. P. Straatsma,
   H. J. J. van Dam, D. Wang, T. L. Windus, J. Hammond, J. Autschbach, A. Woods,
    K. Bhaskaran-Nair, J. Brabec, K. Lopata, S. A. Fischer, S. Krishnamoorthy,
     M. Jacquelin, W. Ma, M. Klemm, O. Villa, Y. Chen, V. Anisimov, F. Aquino,
     S. Hirata, M. T. Hackler, E. Hermes, L. Jensen, J. E. Moore, J. C. Becca,
      V. Konjkov, T. Risthaus, M. Malagoli, A. Marenich, A. Otero-de-la-Roza,
        J. Mullin, P. Nichols, R. Peverati, J. Pittner, Y. Zhao, P.-D. Fan,
        A. Fonari, M. J. Williamson, R. J. Harrison, J. R. Rehr, M. Dupuis,
     D. Silverstein, D. M. A. Smith, J. Nieplocha, V. Tipparaju, M. Krishnan,
     B. E. Van Kuiken, A. Vazquez-Mayagoitia, M. Swart, Q. Wu, T. Van Voorhis,
     A. A. Auer, M. Nooijen, L. D. Crosby, E. Brown, G. Cisneros, G. I. Fann,
   H. Fruchtl, J. Garza, K. Hirao, R. A. Kendall, J. A. Nichols, K. Tsemekhman,
    K. Wolinski, J. Anchell, D. E. Bernholdt, P. Borowski, T. Clark, D. Clerc,
   H. Dachsel, M. J. O. Deegan, K. Dyall, D. Elwood, E. Glendening, M. Gutowski,
   A. C. Hess, J. Jaffe, B. G. Johnson, J. Ju, R. Kobayashi, R. Kutteh, Z. Lin,
   R. Littlefield, X. Long, B. Meng, T. Nakajima, S. Niu, L. Pollack, M. Rosing,
   K. Glaesemann, G. Sandrone, M. Stave, H. Taylor, G. Thomas, J. H. van Lenthe,
                               A. T. Wong, Z. Zhang.

 Total times  cpu:       23.7s     wall:       23.7s
