 argument  1 = /var/folders/v1/k9l8hql13n1gcrjl_yh_gs5m0000gn/T/tmp5exfxhnt/input_dimer.txt
                                         
                                         


             Northwest Computational Chemistry Package (NWChem) 7.2.3
             --------------------------------------------------------


                    Environmental Molecular Sciences Laboratory
                       Pacific Northwest National Laboratory
                                Richland, WA 99352

                              Copyright (c) 1994-2022
                       Pacific Northwest National Laboratory
                            Battelle Memorial Institute

             NWChem is an open-source computational chemistry package
                        distributed under the terms of the
                      Educational Community License (ECL) 2.0
             A copy of the license is included with this distribution
                              in the LICENSE.TXT file

                                  ACKNOWLEDGMENT
                                  --------------

            This software and its documentation were developed at the
            EMSL at Pacific Northwest National Laboratory, a multiprogram
            national laboratory, operated for the U.S. Department of Energy
            by Battelle under Contract Number DE-AC05-76RL01830. Support
            for this work was provided by the Department of Energy Office
            of Biological and Environmental Research, Office of Basic
            Energy Sciences, and the Office of Advanced Scientific Computing.


           Job information
           ---------------

    hostname        = isufi.affiliate.iastate.edu
    program         = nwchem
    date            = Thu Jul  3 08:35:37 2025

    compiled        = Thu_Dec_26_16:03:44_2024
    source          = /private/tmp/nwchem-20241226-24280-orrtsi/nwchem-7.2.3
    nwchem branch   = 7.2.3
    nwchem revision = d690e065
    ga revision     = 5.8.0
    use scalapack   = T
    input           = /var/folders/v1/k9l8hql13n1gcrjl_yh_gs5m0000gn/T/tmp5exfxhnt/input_dimer.txt
    prefix          = input_dimer.
    data base       = ./input_dimer.db
    status          = restart
    nproc           =        8
    time left       =     -1s



           Memory information
           ------------------

    heap     =  536870908 doubles =   4096.0 Mbytes
    stack    =  536870913 doubles =   4096.0 Mbytes
    global   = 1073741824 doubles =   8192.0 Mbytes (distinct from heap & stack)
    total    = 2147483645 doubles =  16384.0 Mbytes
    verify   = yes
    hardfail = no 


           Directory information
           ---------------------

  0 permanent = .
  0 scratch   = .


           Previous task information
           -------------------------

    Theory    = ccsd(t)                         
    Operation = energy                        
    Status    = ok                            
    Qmmm      = F
    Ignore    = F


           Geometries in the database
           --------------------------

       Name                              Natoms  Last Modified
       --------------------------------  ------  ------------------------
    1  geometry                               4  Thu Jul  3 08:35:09 2025  

  The geometry named "geometry" is the default for restart



           Basis sets in the database
           --------------------------

       Name                              Natoms  Last Modified
        --------------------------------  ------  ------------------------
    1  ao basis                               2  Thu Jul  3 08:35:09 2025  

  The basis set named "ao basis" is the default AO basis for restart




                                NWChem Input Module
                                -------------------



 Scaling coordinates for geometry "geometry" by  1.889725989
 (inverse scale =  0.529177249)

 CS  symmetry detected


                             Geometry "geometry" -> ""
                             -------------------------

 Output coordinates in angstroms (scale by  1.889725989 to convert to a.u.)

  No.       Tag          Charge          X              Y              Z
 ---- ---------------- ---------- -------------- -------------- --------------
    1 H                    1.0000    -0.01085955    -2.50320282     0.00000000
    2 F                    9.0000    -0.02390506    -1.57929491     0.00000000
    3 H                    1.0000     0.85411763     1.68342667     0.00000000
    4 F                    9.0000    -0.06979028     1.67038115     0.00000000

      Atomic Mass 
      ----------- 

      H                  1.007825
      F                 18.998400


 Effective nuclear repulsion energy (a.u.)      26.1717234772

            Nuclear Dipole moment (a.u.) 
            ----------------------------
        X                 Y               Z
 ---------------- ---------------- ----------------
     0.0000000000     0.0000000000     0.0000000000

      Symmetry information
      --------------------

 Group name             Cs        
 Group number              2
 Group order               2
 No. of unique centers     4

      Symmetry unique atoms

     1    2    3    4


            XYZ format geometry
            -------------------
     4
 geometry
 H                    -0.01085955    -2.50320282     0.00000000
 F                    -0.02390506    -1.57929491     0.00000000
 H                     0.85411763     1.68342667     0.00000000
 F                    -0.06979028     1.67038115     0.00000000

 ==============================================================================
                                internuclear distances
 ------------------------------------------------------------------------------
       center one      |      center two      | atomic units |  angstroms
 ------------------------------------------------------------------------------
    2 F                |   1 H                |     1.74611  |     0.92400
    4 F                |   3 H                |     1.74611  |     0.92400
 ------------------------------------------------------------------------------
                         number of included internuclear distances:          2
 ==============================================================================



  library name resolved from: environment
  library file name is: </opt/homebrew/Caskroom/mambaforge/base/envs/ames/share/nwchem/libraries/>
  
                      Basis "ao basis" -> "" (spherical)
                      -----
  H (Hydrogen)
  ------------
            Exponent  Coefficients 
       -------------- ---------------------------------------------------------
  1 S  1.30100000E+01  0.019685
  1 S  1.96200000E+00  0.137977
  1 S  4.44600000E-01  0.478148

  2 S  1.22000000E-01  1.000000

  3 S  2.97400000E-02  1.000000

  4 P  7.27000000E-01  1.000000

  5 P  1.41000000E-01  1.000000

  F (Fluorine)
  ------------
            Exponent  Coefficients 
       -------------- ---------------------------------------------------------
  1 S  1.47100000E+04  0.000721
  1 S  2.20700000E+03  0.005553
  1 S  5.02800000E+02  0.028267
  1 S  1.42600000E+02  0.106444
  1 S  4.64700000E+01  0.286814
  1 S  1.67000000E+01  0.448641
  1 S  6.35600000E+00  0.264761
  1 S  1.31600000E+00  0.015333

  2 S  1.47100000E+04 -0.000165
  2 S  2.20700000E+03 -0.001308
  2 S  5.02800000E+02 -0.006495
  2 S  1.42600000E+02 -0.026691
  2 S  4.64700000E+01 -0.073690
  2 S  1.67000000E+01 -0.170776
  2 S  6.35600000E+00 -0.112327
  2 S  1.31600000E+00  0.562814

  3 S  3.89700000E-01  1.000000

  4 S  9.86300000E-02  1.000000

  5 P  2.26700000E+01  0.044878
  5 P  4.97700000E+00  0.235718
  5 P  1.34700000E+00  0.508521

  6 P  3.47100000E-01  1.000000

  7 P  8.50200000E-02  1.000000

  8 D  1.64000000E+00  1.000000

  9 D  4.64000000E-01  1.000000



 Summary of "ao basis" -> "" (spherical)
 ------------------------------------------------------------------------------
       Tag                 Description            Shells   Functions and Types
 ---------------- ------------------------------  ------  ---------------------
 H                        aug-cc-pvdz                5        9   3s2p
 F                        aug-cc-pvdz                9       23   4s3p2d


                                 NWChem SCF Module
                                 -----------------



  ao basis        = "ao basis"
  functions       =    64
  atoms           =     4
  closed shells   =    10
  open shells     =     0
  charge          =   0.00
  wavefunction    = RHF 
  input vectors   = ./input_dimer.movecs
  output vectors  = ./input_dimer.movecs
  use symmetry    = T
  symmetry adapt  = T


 Summary of "ao basis" -> "ao basis" (spherical)
 ------------------------------------------------------------------------------
       Tag                 Description            Shells   Functions and Types
 ---------------- ------------------------------  ------  ---------------------
 H                        aug-cc-pvdz                5        9   3s2p
 F                        aug-cc-pvdz                9       23   4s3p2d


      Symmetry analysis of basis
      --------------------------

        a'         46
        a"         18


 Forming initial guess at       0.1s


 Loading old vectors from job with title :




      Symmetry analysis of molecular orbitals - initial
      -------------------------------------------------

  Numbering of irreducible representations: 

     1 a'          2 a"      

  Orbital symmetries:

     1 a'          2 a'          3 a'          4 a'          5 a'      
     6 a'          7 a"          8 a'          9 a"         10 a'      
    11 a'         12 a'         13 a'         14 a'         15 a"      
    16 a'         17 a'         18 a"         19 a'         20 a'      


 Starting SCF solution at       0.3s



 ----------------------------------------------
         Quadratically convergent ROHF

 Convergence threshold     :          1.000E-06
 Maximum no. of iterations :           30
 Final Fock-matrix accuracy:          1.000E-08
 ----------------------------------------------


 Integral file          = ./input_dimer.aoints.0
 Record size in doubles =  65536        No. of integs per rec  =  43688
 Max. records in memory =      8        Max. records in file   =   3827
 No. of bits per label  =      8        No. of bits per value  =     64


 #quartets = 7.049D+04 #integrals = 8.727D+05 #direct =  0.0% #cached =100.0%


File balance: exchanges=    11  moved=     3  time=   0.0


              iter       energy          gnorm     gmax       time
             ----- ------------------- --------- --------- --------
                 1     -200.0654064037  7.40D-02  2.15D-02      0.7
                 2     -200.0657691933  2.52D-03  6.64D-04      0.9
                 3     -200.0657697918  2.50D-06  6.13D-07      1.2
                 4     -200.0657697918  6.69D-08  1.74D-08      1.4


       Final RHF  results 
       ------------------ 

         Total SCF energy =   -200.065769791816
      One-electron energy =   -332.701339179102
      Two-electron energy =    106.463845910038
 Nuclear repulsion energy =     26.171723477248

        Time for solution =      1.1s



       Symmetry analysis of molecular orbitals - final
       -----------------------------------------------

  Numbering of irreducible representations: 

     1 a'          2 a"      

  Orbital symmetries:

     1 a'          2 a'          3 a'          4 a'          5 a'      
     6 a'          7 a'          8 a"          9 a"         10 a'      
    11 a'         12 a'         13 a'         14 a'         15 a"      
    16 a'         17 a'         18 a'         19 a"         20 a'      

             Final eigenvalues
             -----------------

              1      
    1  -26.3081
    2  -26.2975
    3   -1.6022
    4   -1.5916
    5   -0.7653
    6   -0.7551
    7   -0.6471
    8   -0.6471
    9   -0.6366
   10   -0.6362
   11    0.0349
   12    0.0495
   13    0.1946
   14    0.2104
   15    0.2301
   16    0.2416
   17    0.2646
   18    0.2829
   19    0.2843
   20    0.3460

                       ROHF Final Molecular Orbital Analysis
                       -------------------------------------

 Vector    2  Occ=2.000000D+00  E=-2.629748D+01  Symmetry=a'
              MO Center= -7.0D-02,  1.7D+00, -5.2D-21, r^2= 1.2D-02
   Bfn.  Coefficient  Atom+Function         Bfn.  Coefficient  Atom+Function  
  ----- ------------  ---------------      ----- ------------  ---------------
    42      1.001073  4 F  s          

 Vector    3  Occ=2.000000D+00  E=-1.602216D+00  Symmetry=a'
              MO Center= -2.2D-02, -1.7D+00,  1.1D-18, r^2= 3.8D-01
   Bfn.  Coefficient  Atom+Function         Bfn.  Coefficient  Atom+Function  
  ----- ------------  ---------------      ----- ------------  ---------------
    11      0.486813  2 F  s                 12      0.477545  2 F  s          
     1      0.197828  1 H  s                  2     -0.150022  1 H  s          

 Vector    4  Occ=2.000000D+00  E=-1.591572D+00  Symmetry=a'
              MO Center=  4.3D-02,  1.7D+00, -9.2D-19, r^2= 3.8D-01
   Bfn.  Coefficient  Atom+Function         Bfn.  Coefficient  Atom+Function  
  ----- ------------  ---------------      ----- ------------  ---------------
    43      0.487605  4 F  s                 44      0.473246  4 F  s          
    33      0.196912  3 H  s          

 Vector    5  Occ=2.000000D+00  E=-7.653279D-01  Symmetry=a'
              MO Center= -2.2D-02, -1.7D+00, -2.4D-19, r^2= 6.0D-01
   Bfn.  Coefficient  Atom+Function         Bfn.  Coefficient  Atom+Function  
  ----- ------------  ---------------      ----- ------------  ---------------
    15      0.561407  2 F  py                 1     -0.406604  1 H  s          
    18      0.269570  2 F  py                12      0.253851  2 F  s          

 Vector    6  Occ=2.000000D+00  E=-7.551379D-01  Symmetry=a'
              MO Center=  2.8D-02,  1.7D+00,  8.6D-21, r^2= 5.9D-01
   Bfn.  Coefficient  Atom+Function         Bfn.  Coefficient  Atom+Function  
  ----- ------------  ---------------      ----- ------------  ---------------
    46      0.561582  4 F  px                33      0.406508  3 H  s          
    49      0.268028  4 F  px                44     -0.258348  4 F  s          

 Vector    7  Occ=2.000000D+00  E=-6.470966D-01  Symmetry=a'
              MO Center= -2.3D-02, -1.6D+00,  1.7D-19, r^2= 4.9D-01
   Bfn.  Coefficient  Atom+Function         Bfn.  Coefficient  Atom+Function  
  ----- ------------  ---------------      ----- ------------  ---------------
    14      0.664473  2 F  px                17      0.446309  2 F  px         

 Vector    8  Occ=2.000000D+00  E=-6.470681D-01  Symmetry=a"
              MO Center= -2.3D-02, -1.6D+00, -7.5D-18, r^2= 5.4D-01
   Bfn.  Coefficient  Atom+Function         Bfn.  Coefficient  Atom+Function  
  ----- ------------  ---------------      ----- ------------  ---------------
    16      0.662780  2 F  pz                19      0.445035  2 F  pz         

 Vector    9  Occ=2.000000D+00  E=-6.365806D-01  Symmetry=a"
              MO Center= -4.5D-02,  1.7D+00, -2.3D-18, r^2= 5.4D-01
   Bfn.  Coefficient  Atom+Function         Bfn.  Coefficient  Atom+Function  
  ----- ------------  ---------------      ----- ------------  ---------------
    48      0.662732  4 F  pz                51      0.445177  4 F  pz         

 Vector   10  Occ=2.000000D+00  E=-6.362110D-01  Symmetry=a'
              MO Center= -4.5D-02,  1.7D+00, -4.2D-19, r^2= 5.0D-01
   Bfn.  Coefficient  Atom+Function         Bfn.  Coefficient  Atom+Function  
  ----- ------------  ---------------      ----- ------------  ---------------
    47      0.664840  4 F  py                50      0.446231  4 F  py         

 Vector   11  Occ=0.000000D+00  E= 3.491297D-02  Symmetry=a'
              MO Center=  2.0D-01, -2.3D+00, -9.8D-18, r^2= 1.1D+01
   Bfn.  Coefficient  Atom+Function         Bfn.  Coefficient  Atom+Function  
  ----- ------------  ---------------      ----- ------------  ---------------
    13     -1.315283  2 F  s                  3      1.256517  1 H  s          
     2      0.923581  1 H  s                 45     -0.435311  4 F  s          
    21      0.398512  2 F  py                35      0.328489  3 H  s          
    34      0.237676  3 H  s                  8      0.204051  1 H  py         

 Vector   12  Occ=0.000000D+00  E= 4.947639D-02  Symmetry=a'
              MO Center=  1.1D+00,  1.2D+00,  7.6D-18, r^2= 1.5D+01
   Bfn.  Coefficient  Atom+Function         Bfn.  Coefficient  Atom+Function  
  ----- ------------  ---------------      ----- ------------  ---------------
    35      1.485069  3 H  s                 45     -0.950188  4 F  s          
     3     -0.878480  1 H  s                 13      0.814004  2 F  s          
     2     -0.729279  1 H  s                 34      0.542445  3 H  s          
    21     -0.466614  2 F  py                52     -0.216070  4 F  px         
    39     -0.157738  3 H  px         

 Vector   13  Occ=0.000000D+00  E= 1.945947D-01  Symmetry=a'
              MO Center= -1.5D-01, -7.4D-01, -3.5D-17, r^2= 1.1D+01
   Bfn.  Coefficient  Atom+Function         Bfn.  Coefficient  Atom+Function  
  ----- ------------  ---------------      ----- ------------  ---------------
    13      3.347555  2 F  s                 45      3.139789  4 F  s          
     2     -2.541782  1 H  s                 34     -2.511146  3 H  s          
    21     -1.507761  2 F  py                52      1.396368  4 F  px         
     8     -1.017965  1 H  py                 3     -0.979160  1 H  s          
    39      0.865404  3 H  px                35     -0.470709  3 H  s          

 Vector   14  Occ=0.000000D+00  E= 2.104366D-01  Symmetry=a'
              MO Center=  2.9D-01, -7.4D-01,  1.8D-18, r^2= 1.3D+01
   Bfn.  Coefficient  Atom+Function         Bfn.  Coefficient  Atom+Function  
  ----- ------------  ---------------      ----- ------------  ---------------
    13      3.247884  2 F  s                  2     -2.284775  1 H  s          
    45     -2.276157  4 F  s                 34      1.726961  3 H  s          
    21     -1.316214  2 F  py                 3     -1.183777  1 H  s          
    52     -1.076943  4 F  px                 8     -1.041125  1 H  py         
    35      1.008829  3 H  s                 39     -0.850461  3 H  px         

 Vector   15  Occ=0.000000D+00  E= 2.300574D-01  Symmetry=a"
              MO Center= -9.9D-02, -8.9D-02,  4.9D-18, r^2= 6.5D+00
   Bfn.  Coefficient  Atom+Function         Bfn.  Coefficient  Atom+Function  
  ----- ------------  ---------------      ----- ------------  ---------------
    22      0.909333  2 F  pz                54      0.709110  4 F  pz         
    19     -0.232416  2 F  pz                51     -0.211254  4 F  pz         
     9     -0.199710  1 H  pz         

 Vector   16  Occ=0.000000D+00  E= 2.416011D-01  Symmetry=a'
              MO Center=  2.9D-01,  2.8D-01,  5.5D-19, r^2= 7.7D+00
   Bfn.  Coefficient  Atom+Function         Bfn.  Coefficient  Atom+Function  
  ----- ------------  ---------------      ----- ------------  ---------------
     2      0.778404  1 H  s                 45      0.762630  4 F  s          
    35     -0.754259  3 H  s                 20     -0.736447  2 F  px         
    21      0.643706  2 F  py                39      0.545266  3 H  px         
    34      0.484066  3 H  s                 52     -0.441509  4 F  px         
    13     -0.329466  2 F  s                 44     -0.256110  4 F  s          

 Vector   17  Occ=0.000000D+00  E= 2.645570D-01  Symmetry=a'
              MO Center= -4.7D-02,  2.1D-01,  7.1D-18, r^2= 7.7D+00
   Bfn.  Coefficient  Atom+Function         Bfn.  Coefficient  Atom+Function  
  ----- ------------  ---------------      ----- ------------  ---------------
    34      2.437999  3 H  s                 45     -1.809829  4 F  s          
    52     -1.530585  4 F  px                20      0.803339  2 F  px         
    21      0.553580  2 F  py                13      0.403944  2 F  s          
    44     -0.260537  4 F  s                 40     -0.233447  3 H  py         
    17     -0.214413  2 F  px                39     -0.207075  3 H  px         

 Vector   18  Occ=0.000000D+00  E= 2.828786D-01  Symmetry=a'
              MO Center= -4.6D-01,  1.2D+00, -1.5D-18, r^2= 7.7D+00
   Bfn.  Coefficient  Atom+Function         Bfn.  Coefficient  Atom+Function  
  ----- ------------  ---------------      ----- ------------  ---------------
     2      1.643788  1 H  s                 13     -1.525087  2 F  s          
    53      1.298716  4 F  py                21      0.889574  2 F  py         
    35     -0.511713  3 H  s                 20      0.386433  2 F  px         
    45      0.381864  4 F  s                  3      0.358059  1 H  s          
    52     -0.339838  4 F  px                50     -0.276752  4 F  py         

 Vector   19  Occ=0.000000D+00  E= 2.843149D-01  Symmetry=a"
              MO Center= -1.5D-01,  1.0D-01,  1.9D-17, r^2= 8.4D+00
   Bfn.  Coefficient  Atom+Function         Bfn.  Coefficient  Atom+Function  
  ----- ------------  ---------------      ----- ------------  ---------------
    54      1.048956  4 F  pz                22     -0.813058  2 F  pz         
    19      0.272784  2 F  pz                51     -0.253849  4 F  pz         
    41     -0.182863  3 H  pz         

 Vector   20  Occ=0.000000D+00  E= 3.460177D-01  Symmetry=a'
              MO Center=  1.3D-01,  1.2D+00,  1.9D-18, r^2= 6.3D+00
   Bfn.  Coefficient  Atom+Function         Bfn.  Coefficient  Atom+Function  
  ----- ------------  ---------------      ----- ------------  ---------------
    34      3.701995  3 H  s                 45     -3.640840  4 F  s          
    52     -1.749687  4 F  px                21     -0.911809  2 F  py         
    53     -0.912045  4 F  py                35      0.558198  3 H  s          
    13     -0.414460  2 F  s                 40      0.397059  3 H  py         
     2     -0.302271  1 H  s                 49     -0.301768  4 F  px         

 Vector   21  Occ=0.000000D+00  E= 3.794410D-01  Symmetry=a'
              MO Center=  2.6D-01, -1.6D+00, -3.5D-18, r^2= 6.0D+00
   Bfn.  Coefficient  Atom+Function         Bfn.  Coefficient  Atom+Function  
  ----- ------------  ---------------      ----- ------------  ---------------
    13     -6.306905  2 F  s                  2      6.215220  1 H  s          
    21      3.037758  2 F  py                45     -0.817691  4 F  s          
     3      0.666730  1 H  s                  8      0.563527  1 H  py         
     7     -0.486501  1 H  px                18      0.443233  2 F  py         
    40     -0.334954  3 H  py                53      0.280559  4 F  py         

 Vector   22  Occ=0.000000D+00  E= 3.875910D-01  Symmetry=a'
              MO Center= -9.4D-02, -8.4D-01, -1.9D-18, r^2= 7.6D+00
   Bfn.  Coefficient  Atom+Function         Bfn.  Coefficient  Atom+Function  
  ----- ------------  ---------------      ----- ------------  ---------------
    13     -2.853192  2 F  s                  2      2.697571  1 H  s          
    34     -2.057644  3 H  s                 45      1.926317  4 F  s          
    21      1.216767  2 F  py                 7      1.103782  1 H  px         
    52      0.963906  4 F  px                40      0.851494  3 H  py         
    53     -0.644420  4 F  py                20     -0.582626  2 F  px         

 Vector   23  Occ=0.000000D+00  E= 4.128863D-01  Symmetry=a"
              MO Center=  7.7D-01,  1.7D+00,  4.3D-18, r^2= 3.5D+00
   Bfn.  Coefficient  Atom+Function         Bfn.  Coefficient  Atom+Function  
  ----- ------------  ---------------      ----- ------------  ---------------
    41      1.694518  3 H  pz                54     -1.088990  4 F  pz         
    51     -0.258249  4 F  pz         

 Vector   24  Occ=0.000000D+00  E= 4.186995D-01  Symmetry=a"
              MO Center= -2.4D-02, -2.1D+00,  1.2D-17, r^2= 4.9D+00
   Bfn.  Coefficient  Atom+Function         Bfn.  Coefficient  Atom+Function  
  ----- ------------  ---------------      ----- ------------  ---------------
     9      1.721951  1 H  pz                22     -1.235182  2 F  pz         
    54      0.406774  4 F  pz                19     -0.228978  2 F  pz         

 Vector   25  Occ=0.000000D+00  E= 4.791059D-01  Symmetry=a'
              MO Center= -3.7D-01, -1.5D-03,  9.1D-18, r^2= 7.3D+00
   Bfn.  Coefficient  Atom+Function         Bfn.  Coefficient  Atom+Function  
  ----- ------------  ---------------      ----- ------------  ---------------
    45      3.630369  4 F  s                 34     -2.751344  3 H  s          
     2     -1.898793  1 H  s                 21     -1.850709  2 F  py         
    53     -1.585561  4 F  py                 7     -1.058718  1 H  px         
    40      1.063737  3 H  py                20      1.006369  2 F  px         
    13      0.941998  2 F  s                 52      0.633650  4 F  px         

 Vector   26  Occ=0.000000D+00  E= 5.015241D-01  Symmetry=a'
              MO Center=  4.6D-01,  3.9D-01,  2.1D-17, r^2= 7.2D+00
   Bfn.  Coefficient  Atom+Function         Bfn.  Coefficient  Atom+Function  
  ----- ------------  ---------------      ----- ------------  ---------------
    45      4.852949  4 F  s                 34     -4.147850  3 H  s          
     2     -3.292012  1 H  s                 21     -2.699123  2 F  py         
    13      2.193943  2 F  s                 52      1.503329  4 F  px         
    40     -1.012552  3 H  py                39      0.788359  3 H  px         
     7      0.736799  1 H  px                20     -0.716275  2 F  px         


 center of mass
 --------------
 x =  -0.04393214 y =   0.04270878 z =   0.00000000

 moments of inertia (a.u.)
 ------------------
         391.191636729696          -0.000000000000           0.000000000000
          -0.000000000000           2.917955199123           0.000000000000
           0.000000000000           0.000000000000         394.109591928819

  Mulliken analysis of the total density
  --------------------------------------

    Atom       Charge   Shell Charges
 -----------   ------   -------------------------------------------------------
    1 H    1     0.58   0.67 -0.19 -0.01  0.10  0.01
    2 F    9     9.42   2.00  0.90  0.95  0.17  3.32  1.92  0.17  0.00 -0.01
    3 H    1     0.67   0.67 -0.10 -0.00  0.10  0.01
    4 F    9     9.32   2.00  0.91  0.94  0.11  3.32  1.91  0.13  0.00 -0.01

       Multipole analysis of the density wrt the origin
       ------------------------------------------------

     L   x y z        total         open         nuclear
     -   - - -        -----         ----         -------
     0   0 0 0     -0.000000      0.000000     20.000000

     1   1 0 0      0.764685      0.000000      0.000000
     1   0 1 0     -0.761717      0.000000      0.000000
     1   0 0 1      0.000000      0.000000      0.000000

     2   2 0 0     -6.838763      0.000000      2.780481
     2   1 1 0      2.439997      0.000000      2.698364
     2   1 0 1     -0.000000      0.000000      0.000000
     2   0 2 0     -2.119241      0.000000    202.333148
     2   0 1 1     -0.000000      0.000000      0.000000
     2   0 0 2     -8.524992      0.000000      0.000000


 Parallel integral file used      23 records with       0 large values



                   Four-Index Transformation
                   -------------------------
          Number of basis functions:             64
          Number of shells:                      28
          Number of occupied orbitals:           10
          Number of occ. correlated orbitals:    10
          Block length:                          16
          Superscript MO index range:      1 -   10
          Subscript MO index range:        1 -   64
          MO coefficients read from:  ./input_dimer.movecs     
          Number of operator matrices in core:  110
          Half-transformed integrals produced

     Pass:    1     Index range:    1  -   10     Time:      0.61
 ------------------------------------------
 MP2 Energy (coupled cluster initial guess)
 ------------------------------------------
 Reference energy:           -200.065769791815825
 MP2 Corr. energy:             -0.450442337899086
 Total MP2 energy:           -200.516212129714916


 ****************************************************************************
              the segmented parallel ccsd program:    8 nodes
 ****************************************************************************




 level of theory    ccsd(t)
 number of core         0
 number of occupied    10
 number of virtual     54
 number of deleted      0
 total functions       64
 number of shells      28
 basis label          566



   ***** ccsd parameters *****
   iprt   =     0
   convi  =  0.100E-05
   maxit  =    20
   mxvec  =     5
 memory           1073735100
  Using  1 OpenMP thread(s) in CCSD
  avail0,avail1,avail0-avail1                 16108                16108                    0
  avail0,avail1,avail0-avail1                 16108                16108                    0
  avail0,avail1,avail0-avail1                 16108                16124                  -16
  avail0,avail1,avail0-avail1                 16108                16124                  -16
  Restarting from old vector in ./input_dimer.t2


-------------------------------------------------------------------------
 iter     correlation     delta       rms       T2     Non-T2      Main
             energy      energy      error      ampl     ampl      Block
                                                time     time      time
-------------------------------------------------------------------------
   1     -0.4593441416 -4.593D-01  1.991D-01     1.04     0.00     0.87
   2     -0.4506061504  8.738D-03  1.436D-01     0.33     0.00     0.19
   3     -0.4565743676 -5.968D-03  2.913D-02     0.41     0.00     0.25
   4     -0.4568387990 -2.644D-04  2.185D-02     0.49     0.00     0.27
   5     -0.4572050853 -3.663D-04  8.072D-03     0.38     0.00     0.24
   6     -0.4573094201 -1.043D-04  3.077D-03     0.34     0.00     0.20
   7     -0.4573104415 -1.021D-06  7.922D-04     0.37     0.00     0.19
   8     -0.4573060166  4.425D-06  7.111D-05     0.50     0.00     0.22
   9     -0.4573063564 -3.399D-07  2.377D-05     0.41     0.00     0.28
  10     -0.4573047580  1.598D-06  9.135D-06     0.44     0.00     0.28
  11     -0.4573049093 -1.513D-07  2.911D-06     0.36     0.00     0.20
  12     -0.4573047948  1.145D-07  9.051D-06     0.36     0.00     0.23
  13     -0.4573047581  3.664D-08  3.610D-06     0.37     0.00     0.20
  14     -0.4573047766 -1.848D-08  1.069D-06     0.35     0.00     0.22
  15     -0.4573047820 -5.379D-09  2.523D-07     0.37     0.00     0.19
                  *************converged*************
-------------------------------------------------------------------------

 -----------
 CCSD Energy
 -----------
 Reference energy:            -200.065769791815825
 CCSD corr. energy:             -0.457304782004778
 Total CCSD energy:           -200.523074573820594


 --------------------------------
 Spin Component Scaled (SCS) CCSD
 --------------------------------
 Same spin contribution:                 -0.107480576982315
 Same spin scaling factor:                1.130000000000000
 Opposite spin contribution:             -0.349824205022463
 Opposite spin scaling fact.:             1.270000000000000
 SCS-CCSD correlation energy:            -0.565729792368544
 Total SCS-CCSD energy:                -200.631499584184382
 memory           1073735100


*********triples calculation*********

nkpass=    1; nvpass=    1; memdrv=         163890; memtrn=         855598; memavail=     1073734548
 memory available/node                     1073734548
 total number of virtual orbitals        54
 number of virtuals per integral pass    54
 number of integral evaluations           1
 number of occupied per triples pass     10
 number of triples passes                 1

 commencing integral evaluation        1 at           8.88
  symmetry use  T
task         2 out of       406 done   0%  at       0.0 secs
task        25 out of       406 done   6%  at       0.1 secs
task        42 out of       406 done  10%  at       0.2 secs
task        62 out of       406 done  15%  at       0.2 secs
task        83 out of       406 done  20%  at       0.3 secs
task       102 out of       406 done  25%  at       0.3 secs
task       130 out of       406 done  32%  at       0.4 secs
task       148 out of       406 done  36%  at       0.4 secs
task       165 out of       406 done  40%  at       0.5 secs
task       190 out of       406 done  46%  at       0.6 secs
task       209 out of       406 done  51%  at       0.6 secs
task       230 out of       406 done  56%  at       0.6 secs
task       246 out of       406 done  60%  at       0.7 secs
task       268 out of       406 done  66%  at       0.7 secs
task       292 out of       406 done  71%  at       0.7 secs
task       310 out of       406 done  76%  at       0.7 secs
task       325 out of       406 done  80%  at       0.8 secs
task       352 out of       406 done  86%  at       0.8 secs
task       371 out of       406 done  91%  at       0.8 secs
task       386 out of       406 done  95%  at       0.9 secs
 commencing triples evaluation - blocking       1
 ccsd(t): done        1 out of       54 progress:    1.9%
 ccsd(t): done        2 out of       54 progress:    3.7%
 ccsd(t): done        3 out of       54 progress:    5.6%
 ccsd(t): done        4 out of       54 progress:    7.4%
 ccsd(t): done        5 out of       54 progress:    9.3%
 ccsd(t): done        6 out of       54 progress:   11.1%
 ccsd(t): done        7 out of       54 progress:   13.0%
 ccsd(t): done        8 out of       54 progress:   14.8%
 ccsd(t): done        9 out of       54 progress:   16.7%
 ccsd(t): done       10 out of       54 progress:   18.5%
 ccsd(t): done       11 out of       54 progress:   20.4%
 ccsd(t): done       12 out of       54 progress:   22.2%
 ccsd(t): done       13 out of       54 progress:   24.1%
 ccsd(t): done       14 out of       54 progress:   25.9%
 ccsd(t): done       15 out of       54 progress:   27.8%
 ccsd(t): done       16 out of       54 progress:   29.6%
 ccsd(t): done       17 out of       54 progress:   31.5%
 ccsd(t): done       18 out of       54 progress:   33.3%
 ccsd(t): done       19 out of       54 progress:   35.2%
 ccsd(t): done       20 out of       54 progress:   37.0%
 ccsd(t): done       21 out of       54 progress:   38.9%
 ccsd(t): done       22 out of       54 progress:   40.7%
 ccsd(t): done       23 out of       54 progress:   42.6%
 ccsd(t): done       24 out of       54 progress:   44.4%
 ccsd(t): done       25 out of       54 progress:   46.3%
 ccsd(t): done       26 out of       54 progress:   48.1%
 ccsd(t): done       27 out of       54 progress:   50.0%
 ccsd(t): done       28 out of       54 progress:   51.9%
 ccsd(t): done       29 out of       54 progress:   53.7%
 ccsd(t): done       30 out of       54 progress:   55.6%
 ccsd(t): done       31 out of       54 progress:   57.4%
 ccsd(t): done       32 out of       54 progress:   59.3%
 ccsd(t): done       33 out of       54 progress:   61.1%
 ccsd(t): done       34 out of       54 progress:   63.0%
 ccsd(t): done       35 out of       54 progress:   64.8%
 ccsd(t): done       36 out of       54 progress:   66.7%
 ccsd(t): done       37 out of       54 progress:   68.5%
 ccsd(t): done       38 out of       54 progress:   70.4%
 ccsd(t): done       39 out of       54 progress:   72.2%
 ccsd(t): done       40 out of       54 progress:   74.1%
 ccsd(t): done       41 out of       54 progress:   75.9%
 ccsd(t): done       42 out of       54 progress:   77.8%
 ccsd(t): done       43 out of       54 progress:   79.6%
 ccsd(t): done       44 out of       54 progress:   81.5%
 ccsd(t): done       45 out of       54 progress:   83.3%
 ccsd(t): done       46 out of       54 progress:   85.2%
 ccsd(t): done       47 out of       54 progress:   87.0%
 ccsd(t): done       48 out of       54 progress:   88.9%
 ccsd(t): done       49 out of       54 progress:   90.7%
 ccsd(t): done       50 out of       54 progress:   92.6%
 ccsd(t): done       51 out of       54 progress:   94.4%
 ccsd(t): done       52 out of       54 progress:   96.3%
 ccsd(t): done       53 out of       54 progress:   98.1%
 ccsd(t): done       54 out of       54 progress:  100.0%
 Time for integral evaluation pass     1        0.91
 Time for triples evaluation pass      1        2.48

 pseudo-e(mp4)  -0.96554900520386E-02
 pseudo-e(mp5)   0.12027753946275E-02
        e(t)    -0.84527146574111E-02

 --------------
 CCSD(T) Energy
 --------------
 Reference energy:                    -200.065769791815825

 CCSD corr. energy:                     -0.457304782004778
 T(CCSD) corr. energy:                  -0.009655490052039
 Total CCSD+T(CCSD) energy:           -200.532730063872634

 CCSD corr. energy:                     -0.457304782004778
 (T) corr. energy:                      -0.008452714657411
 Total CCSD(T) energy:                -200.531527288478003

 routine      calls  cpu(0)   cpu-min  cpu-ave  cpu-max   i/o 
 aoccsd          1     0.09     0.09     0.09     0.09    0.00
 iterdrv         1     0.14     0.14     0.14     0.14    0.00
 pampt          15     0.20     0.20     0.20     0.20    0.00
 t2pm           15     0.51     0.51     0.51     0.51    0.00
 sxy            15     0.49     0.11     0.35     0.49    0.00
 ints        20561     0.19     0.16     0.17     0.20    0.00
 f_write       102     0.05     0.05     0.05     0.06    0.00
 t2eri         765     0.96     0.83     0.90     1.00    0.00
 idx2          765     2.27     2.27     2.48     2.80    0.00
 idx34          15     0.03     0.02     0.03     0.03    0.00
 ht2pm          15     0.12     0.11     0.12     0.12    0.00
 itm            15     1.66     1.66     1.66     1.66    0.00
 pdiis          15     0.01     0.01     0.01     0.01    0.00
 r_read        714     0.04     0.04     0.04     0.04    0.00
 triples         1     0.00     0.00     0.00     0.00    0.00
 rdtrpo          1     0.01     0.01     0.01     0.01    0.00
 trpmos          1     0.91     0.91     0.91     0.91    0.00
 trpdrv          1     1.46     1.46     1.50     1.56    0.00
 dovvv        7590     0.64     0.59     0.62     0.64    0.00
 doooo        7590     0.14     0.13     0.14     0.15    0.00
 tengy        6900     0.23     0.19     0.21     0.23    0.00
 Total                10.15    10.15    10.15    10.15    0.00

 Task  times  cpu:       12.2s     wall:       12.2s


                                NWChem Input Module
                                -------------------


 Summary of allocated global arrays
-----------------------------------
  No active global arrays


MA_summarize_allocated_blocks: starting scan ...
MA_summarize_allocated_blocks: scan completed: 0 heap blocks, 0 stack blocks
MA usage statistics:

	allocation statistics:
					      heap	     stack
					      ----	     -----
	current number of blocks	         0	         0
	maximum number of blocks	        18	        42
	current total bytes		         0	         0
	maximum total bytes		   4213768	7731491432
	maximum total K-bytes		      4214	   7731492
	maximum total M-bytes		         5	      7732


                                     CITATION
                                     --------
                Please cite the following reference when publishing
                           results obtained with NWChem:

          E. Apra, E. J. Bylaska, W. A. de Jong, N. Govind, K. Kowalski,
       T. P. Straatsma, M. Valiev, H. J. J. van Dam, Y. Alexeev, J. Anchell,
       V. Anisimov, F. W. Aquino, R. Atta-Fynn, J. Autschbach, N. P. Bauman,
     J. C. Becca, D. E. Bernholdt, K. Bhaskaran-Nair, S. Bogatko, P. Borowski,
         J. Boschen, J. Brabec, A. Bruner, E. Cauet, Y. Chen, G. N. Chuev,
      C. J. Cramer, J. Daily, M. J. O. Deegan, T. H. Dunning Jr., M. Dupuis,
   K. G. Dyall, G. I. Fann, S. A. Fischer, A. Fonari, H. Fruchtl, L. Gagliardi,
      J. Garza, N. Gawande, S. Ghosh, K. Glaesemann, A. W. Gotz, J. Hammond,
       V. Helms, E. D. Hermes, K. Hirao, S. Hirata, M. Jacquelin, L. Jensen,
   B. G. Johnson, H. Jonsson, R. A. Kendall, M. Klemm, R. Kobayashi, V. Konkov,
      S. Krishnamoorthy, M. Krishnan, Z. Lin, R. D. Lins, R. J. Littlefield,
      A. J. Logsdail, K. Lopata, W. Ma, A. V. Marenich, J. Martin del Campo,
   D. Mejia-Rodriguez, J. E. Moore, J. M. Mullin, T. Nakajima, D. R. Nascimento,
    J. A. Nichols, P. J. Nichols, J. Nieplocha, A. Otero-de-la-Roza, B. Palmer,
    A. Panyala, T. Pirojsirikul, B. Peng, R. Peverati, J. Pittner, L. Pollack,
   R. M. Richard, P. Sadayappan, G. C. Schatz, W. A. Shelton, D. W. Silverstein,
   D. M. A. Smith, T. A. Soares, D. Song, M. Swart, H. L. Taylor, G. S. Thomas,
            V. Tipparaju, D. G. Truhlar, K. Tsemekhman, T. Van Voorhis,
      A. Vazquez-Mayagoitia, P. Verma, O. Villa, A. Vishnu, K. D. Vogiatzis,
        D. Wang, J. H. Weare, M. J. Williamson, T. L. Windus, K. Wolinski,
        A. T. Wong, Q. Wu, C. Yang, Q. Yu, M. Zacharias, Z. Zhang, Y. Zhao,
                                and R. J. Harrison
                        "NWChem: Past, present, and future
                         J. Chem. Phys. 152, 184102 (2020)
                               doi:10.1063/5.0004997

                                      AUTHORS
                                      -------
  E. Apra, E. J. Bylaska, N. Govind, K. Kowalski, M. Valiev, D. Mejia-Rodriguez,
       A. Kunitsa, N. P. Bauman, A. Panyala, W. A. de Jong, T. P. Straatsma,
   H. J. J. van Dam, D. Wang, T. L. Windus, J. Hammond, J. Autschbach, A. Woods,
    K. Bhaskaran-Nair, J. Brabec, K. Lopata, S. A. Fischer, S. Krishnamoorthy,
     M. Jacquelin, W. Ma, M. Klemm, O. Villa, Y. Chen, V. Anisimov, F. Aquino,
     S. Hirata, M. T. Hackler, E. Hermes, L. Jensen, J. E. Moore, J. C. Becca,
      V. Konjkov, T. Risthaus, M. Malagoli, A. Marenich, A. Otero-de-la-Roza,
        J. Mullin, P. Nichols, R. Peverati, J. Pittner, Y. Zhao, P.-D. Fan,
        A. Fonari, M. J. Williamson, R. J. Harrison, J. R. Rehr, M. Dupuis,
     D. Silverstein, D. M. A. Smith, J. Nieplocha, V. Tipparaju, M. Krishnan,
     B. E. Van Kuiken, A. Vazquez-Mayagoitia, M. Swart, Q. Wu, T. Van Voorhis,
     A. A. Auer, M. Nooijen, L. D. Crosby, E. Brown, G. Cisneros, G. I. Fann,
   H. Fruchtl, J. Garza, K. Hirao, R. A. Kendall, J. A. Nichols, K. Tsemekhman,
    K. Wolinski, J. Anchell, D. E. Bernholdt, P. Borowski, T. Clark, D. Clerc,
   H. Dachsel, M. J. O. Deegan, K. Dyall, D. Elwood, E. Glendening, M. Gutowski,
   A. C. Hess, J. Jaffe, B. G. Johnson, J. Ju, R. Kobayashi, R. Kutteh, Z. Lin,
   R. Littlefield, X. Long, B. Meng, T. Nakajima, S. Niu, L. Pollack, M. Rosing,
   K. Glaesemann, G. Sandrone, M. Stave, H. Taylor, G. Thomas, J. H. van Lenthe,
                               A. T. Wong, Z. Zhang.

 Total times  cpu:       12.3s     wall:       12.3s
