 argument  1 = /var/folders/v1/k9l8hql13n1gcrjl_yh_gs5m0000gn/T/tmp0yn7cstt/input_A_AB.txt
                                         
                                         


             Northwest Computational Chemistry Package (NWChem) 7.2.3
             --------------------------------------------------------


                    Environmental Molecular Sciences Laboratory
                       Pacific Northwest National Laboratory
                                Richland, WA 99352

                              Copyright (c) 1994-2022
                       Pacific Northwest National Laboratory
                            Battelle Memorial Institute

             NWChem is an open-source computational chemistry package
                        distributed under the terms of the
                      Educational Community License (ECL) 2.0
             A copy of the license is included with this distribution
                              in the LICENSE.TXT file

                                  ACKNOWLEDGMENT
                                  --------------

            This software and its documentation were developed at the
            EMSL at Pacific Northwest National Laboratory, a multiprogram
            national laboratory, operated for the U.S. Department of Energy
            by Battelle under Contract Number DE-AC05-76RL01830. Support
            for this work was provided by the Department of Energy Office
            of Biological and Environmental Research, Office of Basic
            Energy Sciences, and the Office of Advanced Scientific Computing.


           Job information
           ---------------

    hostname        = visitor-wireless1-147-155-221-109.ameslab.gov
    program         = nwchem
    date            = Wed Jul  2 15:03:15 2025

    compiled        = Thu_Dec_26_16:03:44_2024
    source          = /private/tmp/nwchem-20241226-24280-orrtsi/nwchem-7.2.3
    nwchem branch   = 7.2.3
    nwchem revision = d690e065
    ga revision     = 5.8.0
    use scalapack   = T
    input           = /var/folders/v1/k9l8hql13n1gcrjl_yh_gs5m0000gn/T/tmp0yn7cstt/input_A_AB.txt
    prefix          = input_A_AB.
    data base       = ./input_A_AB.db
    status          = restart
    nproc           =        8
    time left       =     -1s



           Memory information
           ------------------

    heap     =  536870908 doubles =   4096.0 Mbytes
    stack    =  536870913 doubles =   4096.0 Mbytes
    global   = 1073741824 doubles =   8192.0 Mbytes (distinct from heap & stack)
    total    = 2147483645 doubles =  16384.0 Mbytes
    verify   = yes
    hardfail = no 


           Directory information
           ---------------------

  0 permanent = .
  0 scratch   = .


           Previous task information
           -------------------------

    Theory    = ccsd(t)                         
    Operation = energy                        
    Status    = ok                            
    Qmmm      = F
    Ignore    = F


           Geometries in the database
           --------------------------

       Name                              Natoms  Last Modified
       --------------------------------  ------  ------------------------
    1  geometry                               6  Wed Jul  2 15:02:21 2025  

  The geometry named "geometry" is the default for restart



           Basis sets in the database
           --------------------------

       Name                              Natoms  Last Modified
        --------------------------------  ------  ------------------------
    1  ao basis                               4  Wed Jul  2 15:02:21 2025  

  The basis set named "ao basis" is the default AO basis for restart




                                NWChem Input Module
                                -------------------



 Scaling coordinates for geometry "geometry" by  1.889725989
 (inverse scale =  0.529177249)

 C1  symmetry detected


                             Geometry "geometry" -> ""
                             -------------------------

 Output coordinates in angstroms (scale by  1.889725989 to convert to a.u.)

  No.       Tag          Charge          X              Y              Z
 ---- ---------------- ---------- -------------- -------------- --------------
    1 O                    8.0000    -0.11892764     0.00338089    -0.00031074
    2 H                    1.0000     0.47992054     0.06447928    -0.75584840
    3 H                    1.0000     0.47150058    -0.09152640     0.75833432
    4 bqO                  0.0000    -0.05483543    -3.21719646    -0.48259419
    5 bqH                  0.0000     0.70268592    -3.29979304     0.11114691
    6 bqH                  0.0000    -0.81891540    -3.25653381     0.10714269

      Atomic Mass 
      ----------- 

      O                 15.994910
      H                  1.007825


 Effective nuclear repulsion energy (a.u.)       9.1123991190

            Nuclear Dipole moment (a.u.) 
            ----------------------------
        X                 Y               Z
 ---------------- ---------------- ----------------
     0.0000000000     0.0000000000     0.0000000000


            XYZ format geometry
            -------------------
     6
 geometry
 O                    -0.11892764     0.00338089    -0.00031074
 H                     0.47992054     0.06447928    -0.75584840
 H                     0.47150058    -0.09152640     0.75833432
 bqO                  -0.05483543    -3.21719646    -0.48259419
 bqH                   0.70268592    -3.29979304     0.11114691
 bqH                  -0.81891540    -3.25653381     0.10714269

 ==============================================================================
                                internuclear distances
 ------------------------------------------------------------------------------
       center one      |      center two      | atomic units |  angstroms
 ------------------------------------------------------------------------------
    2 H                |   1 O                |     1.82551  |     0.96602
    3 H                |   1 O                |     1.82547  |     0.96600
    5 bqH              |   4 bqO              |     1.82551  |     0.96602
    6 bqH              |   4 bqO              |     1.82547  |     0.96600
    6 bqH              |   5 bqH              |     2.87658  |     1.52222
 ------------------------------------------------------------------------------
                         number of included internuclear distances:          5
 ==============================================================================



 ==============================================================================
                                 internuclear angles
 ------------------------------------------------------------------------------
        center 1       |       center 2       |       center 3       |  degrees
 ------------------------------------------------------------------------------
    2 H                |   1 O                |   3 H                |   103.98
    5 bqH              |   4 bqO              |   6 bqH              |   103.98
    5 bqH              |   4 bqO              |   6 bqH              |   103.98
    6 bqH              |   4 bqO              |   5 bqH              |   103.98
 ------------------------------------------------------------------------------
                            number of included internuclear angles:          4
 ==============================================================================



  library name resolved from: environment
  library file name is: </opt/homebrew/Caskroom/mambaforge/base/envs/ames/share/nwchem/libraries/>
  
                      Basis "ao basis" -> "" (spherical)
                      -----
  O (Oxygen)
  ----------
            Exponent  Coefficients 
       -------------- ---------------------------------------------------------
  1 S  1.17200000E+04  0.000710
  1 S  1.75900000E+03  0.005470
  1 S  4.00800000E+02  0.027837
  1 S  1.13700000E+02  0.104800
  1 S  3.70300000E+01  0.283062
  1 S  1.32700000E+01  0.448719
  1 S  5.02500000E+00  0.270952
  1 S  1.01300000E+00  0.015458

  2 S  1.17200000E+04 -0.000160
  2 S  1.75900000E+03 -0.001263
  2 S  4.00800000E+02 -0.006267
  2 S  1.13700000E+02 -0.025716
  2 S  3.70300000E+01 -0.070924
  2 S  1.32700000E+01 -0.165411
  2 S  5.02500000E+00 -0.116955
  2 S  1.01300000E+00  0.557368

  3 S  3.02300000E-01  1.000000

  4 S  7.89600000E-02  1.000000

  5 P  1.77000000E+01  0.043018
  5 P  3.85400000E+00  0.228913
  5 P  1.04600000E+00  0.508728

  6 P  2.75300000E-01  1.000000

  7 P  6.85600000E-02  1.000000

  8 D  1.18500000E+00  1.000000

  9 D  3.32000000E-01  1.000000

  H (Hydrogen)
  ------------
            Exponent  Coefficients 
       -------------- ---------------------------------------------------------
  1 S  1.30100000E+01  0.019685
  1 S  1.96200000E+00  0.137977
  1 S  4.44600000E-01  0.478148

  2 S  1.22000000E-01  1.000000

  3 S  2.97400000E-02  1.000000

  4 P  7.27000000E-01  1.000000

  5 P  1.41000000E-01  1.000000

  bqO
  ---
            Exponent  Coefficients 
       -------------- ---------------------------------------------------------
  1 S  1.17200000E+04  0.000710
  1 S  1.75900000E+03  0.005470
  1 S  4.00800000E+02  0.027837
  1 S  1.13700000E+02  0.104800
  1 S  3.70300000E+01  0.283062
  1 S  1.32700000E+01  0.448719
  1 S  5.02500000E+00  0.270952
  1 S  1.01300000E+00  0.015458

  2 S  1.17200000E+04 -0.000160
  2 S  1.75900000E+03 -0.001263
  2 S  4.00800000E+02 -0.006267
  2 S  1.13700000E+02 -0.025716
  2 S  3.70300000E+01 -0.070924
  2 S  1.32700000E+01 -0.165411
  2 S  5.02500000E+00 -0.116955
  2 S  1.01300000E+00  0.557368

  3 S  3.02300000E-01  1.000000

  4 S  7.89600000E-02  1.000000

  5 P  1.77000000E+01  0.043018
  5 P  3.85400000E+00  0.228913
  5 P  1.04600000E+00  0.508728

  6 P  2.75300000E-01  1.000000

  7 P  6.85600000E-02  1.000000

  8 D  1.18500000E+00  1.000000

  9 D  3.32000000E-01  1.000000

  bqH
  ---
            Exponent  Coefficients 
       -------------- ---------------------------------------------------------
  1 S  1.30100000E+01  0.019685
  1 S  1.96200000E+00  0.137977
  1 S  4.44600000E-01  0.478148

  2 S  1.22000000E-01  1.000000

  3 S  2.97400000E-02  1.000000

  4 P  7.27000000E-01  1.000000

  5 P  1.41000000E-01  1.000000



 Summary of "ao basis" -> "" (spherical)
 ------------------------------------------------------------------------------
       Tag                 Description            Shells   Functions and Types
 ---------------- ------------------------------  ------  ---------------------
 O                        aug-cc-pvdz                9       23   4s3p2d
 H                        aug-cc-pvdz                5        9   3s2p
 bqO                      aug-cc-pvdz                9       23   4s3p2d
 bqH                      aug-cc-pvdz                5        9   3s2p


                                 NWChem SCF Module
                                 -----------------



  ao basis        = "ao basis"
  functions       =    82
  atoms           =     6
  closed shells   =     5
  open shells     =     0
  charge          =   0.00
  wavefunction    = RHF 
  input vectors   = ./input_A_AB.movecs
  output vectors  = ./input_A_AB.movecs
  use symmetry    = F
  symmetry adapt  = F


 Summary of "ao basis" -> "ao basis" (spherical)
 ------------------------------------------------------------------------------
       Tag                 Description            Shells   Functions and Types
 ---------------- ------------------------------  ------  ---------------------
 O                        aug-cc-pvdz                9       23   4s3p2d
 H                        aug-cc-pvdz                5        9   3s2p
 bqO                      aug-cc-pvdz                9       23   4s3p2d
 bqH                      aug-cc-pvdz                5        9   3s2p



 Forming initial guess at       0.1s


 Loading old vectors from job with title :




 Starting SCF solution at       0.1s



 ----------------------------------------------
         Quadratically convergent ROHF

 Convergence threshold     :          1.000E-06
 Maximum no. of iterations :           30
 Final Fock-matrix accuracy:          1.000E-08
 ----------------------------------------------


 Integral file          = ./input_A_AB.aoints.0
 Record size in doubles =  65536        No. of integs per rec  =  43688
 Max. records in memory =     25        Max. records in file   =   4272
 No. of bits per label  =      8        No. of bits per value  =     64


 #quartets = 2.611D+05 #integrals = 5.179D+06 #direct =  0.0% #cached =100.0%


File balance: exchanges=    11  moved=    22  time=   0.0


              iter       energy          gnorm     gmax       time
             ----- ------------------- --------- --------- --------
                 1      -76.0405819743  6.16D-02  2.29D-02      0.5
                 2      -76.0408273795  2.89D-03  1.47D-03      0.7
                 3      -76.0408284590  2.12D-06  4.59D-07      0.9
                 4      -76.0408284590  5.17D-08  1.30D-08      1.1


       Final RHF  results 
       ------------------ 

         Total SCF energy =    -76.040828459020
      One-electron energy =   -122.828754002532
      Two-electron energy =     37.675526424556
 Nuclear repulsion energy =      9.112399118956

        Time for solution =      1.0s


             Final eigenvalues
             -----------------

              1      
    1  -20.5790
    2   -1.3525
    3   -0.7135
    4   -0.5850
    5   -0.5089
    6    0.0304
    7    0.0537
    8    0.0582
    9    0.0661
   10    0.1539
   11    0.1667
   12    0.1824
   13    0.1896
   14    0.2081
   15    0.2307

                       ROHF Final Molecular Orbital Analysis
                       -------------------------------------

 Vector    2  Occ=2.000000D+00  E=-1.352507D+00
              MO Center=  4.9D-02, -1.4D-03,  1.3D-04, r^2= 5.0D-01
   Bfn.  Coefficient  Atom+Function         Bfn.  Coefficient  Atom+Function  
  ----- ------------  ---------------      ----- ------------  ---------------
     2      0.448950  1 O  s                  3      0.382295  1 O  s          
    24      0.202386  2 H  s                 33      0.202408  3 H  s          

 Vector    3  Occ=2.000000D+00  E=-7.134551D-01
              MO Center=  9.5D-02, -2.7D-03,  2.4D-04, r^2= 7.7D-01
   Bfn.  Coefficient  Atom+Function         Bfn.  Coefficient  Atom+Function  
  ----- ------------  ---------------      ----- ------------  ---------------
     7      0.496191  1 O  pz                24     -0.346971  2 H  s          
    33      0.346991  3 H  s                 10      0.197145  1 O  pz         

 Vector    4  Occ=2.000000D+00  E=-5.850084D-01
              MO Center= -1.5D-01,  4.4D-03, -4.0D-04, r^2= 7.3D-01
   Bfn.  Coefficient  Atom+Function         Bfn.  Coefficient  Atom+Function  
  ----- ------------  ---------------      ----- ------------  ---------------
     5      0.547235  1 O  px                 8      0.325033  1 O  px         
     3     -0.315676  1 O  s                 24      0.212421  2 H  s          
    33      0.212442  3 H  s                  2     -0.151882  1 O  s          

 Vector    5  Occ=2.000000D+00  E=-5.088531D-01
              MO Center= -8.0D-02,  2.2D-03, -1.9D-04, r^2= 6.8D-01
   Bfn.  Coefficient  Atom+Function         Bfn.  Coefficient  Atom+Function  
  ----- ------------  ---------------      ----- ------------  ---------------
     6      0.625105  1 O  py                 9      0.448636  1 O  py         

 Vector    6  Occ=0.000000D+00  E= 3.035729D-02
              MO Center=  9.8D-01, -1.5D+00, -7.9D-03, r^2= 1.3D+01
   Bfn.  Coefficient  Atom+Function         Bfn.  Coefficient  Atom+Function  
  ----- ------------  ---------------      ----- ------------  ---------------
    45      0.914549  4 bq s                  4      0.900939  1 O  s          
    67     -0.854059  5 bq s                 26     -0.585026  2 H  s          
    35     -0.460949  3 H  s                 66     -0.369495  5 bq s          
    25     -0.273951  2 H  s                 75     -0.243062  6 bq s          
    34     -0.224718  3 H  s                 54      0.201457  4 bq pz         

 Vector    7  Occ=0.000000D+00  E= 5.370123D-02
              MO Center=  2.4D-01, -1.9D+00, -3.5D-01, r^2= 1.9D+01
   Bfn.  Coefficient  Atom+Function         Bfn.  Coefficient  Atom+Function  
  ----- ------------  ---------------      ----- ------------  ---------------
    26      1.518261  2 H  s                  4     -1.143557  1 O  s          
    45      1.119700  4 bq s                 76     -0.988223  6 bq s          
    67     -0.723357  5 bq s                 25      0.476279  2 H  s          
    75     -0.414506  6 bq s                 66     -0.292610  5 bq s          
    54      0.269995  4 bq pz                13      0.203350  1 O  pz         

 Vector    8  Occ=0.000000D+00  E= 5.821365D-02
              MO Center=  7.8D-01, -2.0D-01,  4.8D-01, r^2= 1.6D+01
   Bfn.  Coefficient  Atom+Function         Bfn.  Coefficient  Atom+Function  
  ----- ------------  ---------------      ----- ------------  ---------------
    35      3.128106  3 H  s                 26     -2.635453  2 H  s          
    13     -0.785904  1 O  pz                34      0.640415  3 H  s          
    25     -0.420630  2 H  s                  4     -0.376324  1 O  s          
    45      0.369358  4 bq s                 76     -0.313819  6 bq s          
    67     -0.217459  5 bq s          

 Vector    9  Occ=0.000000D+00  E= 6.607277D-02
              MO Center= -4.7D-01, -3.2D+00,  4.0D-01, r^2= 1.6D+01
   Bfn.  Coefficient  Atom+Function         Bfn.  Coefficient  Atom+Function  
  ----- ------------  ---------------      ----- ------------  ---------------
    67      2.948047  5 bq s                 76     -2.886171  6 bq s          
    52     -0.702089  4 bq px                66      0.545702  5 bq s          
    75     -0.530542  6 bq s                  4      0.476337  1 O  s          
    35     -0.407592  3 H  s                 34     -0.218131  3 H  s          
    80     -0.165239  6 bq px                71     -0.150817  5 bq px         

 Vector   10  Occ=0.000000D+00  E= 1.539125D-01
              MO Center=  4.3D-02, -2.8D+00, -7.4D-01, r^2= 1.0D+01
   Bfn.  Coefficient  Atom+Function         Bfn.  Coefficient  Atom+Function  
  ----- ------------  ---------------      ----- ------------  ---------------
     4      2.173326  1 O  s                 54     -1.707939  4 bq pz         
    25     -1.163222  2 H  s                 45     -1.137602  4 bq s          
    26     -1.123563  2 H  s                 75      1.028260  6 bq s          
    35      0.918237  3 H  s                 66      0.855384  5 bq s          
    11      0.761130  1 O  px                34     -0.667102  3 H  s          

 Vector   11  Occ=0.000000D+00  E= 1.666739D-01
              MO Center=  2.7D-01, -2.8D+00,  1.8D-02, r^2= 9.6D+00
   Bfn.  Coefficient  Atom+Function         Bfn.  Coefficient  Atom+Function  
  ----- ------------  ---------------      ----- ------------  ---------------
    45      4.254399  4 bq s                  4      1.674319  1 O  s          
    66     -1.656522  5 bq s                 75     -1.319580  6 bq s          
    54      1.252178  4 bq pz                67     -1.157984  5 bq s          
    34     -0.743720  3 H  s                 35     -0.520717  3 H  s          
    25     -0.509855  2 H  s                 11      0.472698  1 O  px         

 Vector   12  Occ=0.000000D+00  E= 1.823793D-01
              MO Center= -2.9D-01, -8.2D-01, -1.8D-01, r^2= 1.1D+01
   Bfn.  Coefficient  Atom+Function         Bfn.  Coefficient  Atom+Function  
  ----- ------------  ---------------      ----- ------------  ---------------
     4      3.984598  1 O  s                 45     -2.245294  4 bq s          
    11      2.031772  1 O  px                34     -1.977166  3 H  s          
    25     -1.755665  2 H  s                 76      0.928324  6 bq s          
    53     -0.740443  4 bq py                75      0.736508  6 bq s          
    35     -0.608101  3 H  s                 66      0.535321  5 bq s          

 Vector   13  Occ=0.000000D+00  E= 1.895922D-01
              MO Center= -5.8D-04, -2.5D+00, -5.2D-01, r^2= 1.1D+01
   Bfn.  Coefficient  Atom+Function         Bfn.  Coefficient  Atom+Function  
  ----- ------------  ---------------      ----- ------------  ---------------
    45      1.975990  4 bq s                  4     -1.309530  1 O  s          
    76     -1.296936  6 bq s                 53     -1.242497  4 bq py         
    75     -1.223241  6 bq s                 52     -0.894242  4 bq px         
    26      0.573127  2 H  s                 35      0.569219  3 H  s          
    25      0.420734  2 H  s                 54      0.391048  4 bq pz         

 Vector   14  Occ=0.000000D+00  E= 2.080971D-01
              MO Center= -2.3D-01, -2.9D+00, -5.7D-01, r^2= 1.0D+01
   Bfn.  Coefficient  Atom+Function         Bfn.  Coefficient  Atom+Function  
  ----- ------------  ---------------      ----- ------------  ---------------
    52      2.641119  4 bq px                67     -2.419747  5 bq s          
    76      2.310919  6 bq s                 66     -2.044554  5 bq s          
    75      1.936692  6 bq s                 25      0.613403  2 H  s          
    13      0.538340  1 O  pz                53     -0.418838  4 bq py         
    26      0.407998  2 H  s                 82     -0.398352  6 bq pz         

 Vector   15  Occ=0.000000D+00  E= 2.307045D-01
              MO Center= -1.1D-01,  2.2D-01, -8.5D-01, r^2= 9.0D+00
   Bfn.  Coefficient  Atom+Function         Bfn.  Coefficient  Atom+Function  
  ----- ------------  ---------------      ----- ------------  ---------------
    26      2.522742  2 H  s                 25      2.230062  2 H  s          
    13      2.216762  1 O  pz                34     -1.682183  3 H  s          
     4     -1.604312  1 O  s                 35     -1.460309  3 H  s          
    12     -1.080513  1 O  py                32      0.670612  2 H  pz         
    30     -0.659658  2 H  px                45     -0.508033  4 bq s          

 Vector   16  Occ=0.000000D+00  E= 2.361991D-01
              MO Center= -8.8D-03, -1.5D-01,  9.9D-01, r^2= 9.2D+00
   Bfn.  Coefficient  Atom+Function         Bfn.  Coefficient  Atom+Function  
  ----- ------------  ---------------      ----- ------------  ---------------
    35      2.349845  3 H  s                  4     -2.081394  1 O  s          
    13     -1.912744  1 O  pz                34      1.875375  3 H  s          
    25     -1.318240  2 H  s                 67     -1.178689  5 bq s          
    26     -1.039173  2 H  s                 41     -0.693941  3 H  pz         
    76      0.694629  6 bq s                 39     -0.688315  3 H  px         

 Vector   17  Occ=0.000000D+00  E= 2.686564D-01
              MO Center= -2.4D-01, -4.1D-01, -1.9D-01, r^2= 1.0D+01
   Bfn.  Coefficient  Atom+Function         Bfn.  Coefficient  Atom+Function  
  ----- ------------  ---------------      ----- ------------  ---------------
    12      1.806788  1 O  py                53      1.458985  4 bq py         
    34     -0.875011  3 H  s                 35     -0.771686  3 H  s          
    11      0.754896  1 O  px                13      0.743972  1 O  pz         
    45      0.657848  4 bq s                 67      0.596334  5 bq s          
    52     -0.431991  4 bq px                31     -0.344361  2 H  py         

 Vector   18  Occ=0.000000D+00  E= 2.865643D-01
              MO Center=  3.7D-01, -2.3D-01, -1.7D-02, r^2= 5.3D+00
   Bfn.  Coefficient  Atom+Function         Bfn.  Coefficient  Atom+Function  
  ----- ------------  ---------------      ----- ------------  ---------------
    34     -0.973874  3 H  s                 25      0.924414  2 H  s          
    13      0.902243  1 O  pz                76     -0.533999  6 bq s          
    67      0.468350  5 bq s                 30      0.454657  2 H  px         
    32     -0.450226  2 H  pz                39     -0.436762  3 H  px         
    41     -0.368390  3 H  pz                26     -0.339554  2 H  s          

 Vector   19  Occ=0.000000D+00  E= 3.397865D-01
              MO Center=  1.2D-01, -5.5D-01,  3.8D-03, r^2= 5.6D+00
   Bfn.  Coefficient  Atom+Function         Bfn.  Coefficient  Atom+Function  
  ----- ------------  ---------------      ----- ------------  ---------------
     4      3.274288  1 O  s                 45     -2.150238  4 bq s          
    34     -1.613687  3 H  s                 25     -1.583248  2 H  s          
    66      1.041804  5 bq s                 75      0.923770  6 bq s          
    53     -0.775826  4 bq py                12     -0.707354  1 O  py         
    30      0.676943  2 H  px                39      0.604482  3 H  px         

 Vector   20  Occ=0.000000D+00  E= 3.674013D-01
              MO Center=  1.6D-01, -2.0D+00,  1.5D-01, r^2= 7.3D+00
   Bfn.  Coefficient  Atom+Function         Bfn.  Coefficient  Atom+Function  
  ----- ------------  ---------------      ----- ------------  ---------------
    66      1.361997  5 bq s                 52     -1.009325  4 bq px         
    40     -0.889428  3 H  py                45     -0.753504  4 bq s          
    54     -0.591030  4 bq pz                75     -0.498322  6 bq s          
    53     -0.495421  4 bq py                72      0.486296  5 bq py         
    80      0.452317  6 bq px                25      0.393398  2 H  s          

 Vector   21  Occ=0.000000D+00  E= 3.877652D-01
              MO Center=  3.6D-01, -2.5D+00,  1.4D-01, r^2= 7.0D+00
   Bfn.  Coefficient  Atom+Function         Bfn.  Coefficient  Atom+Function  
  ----- ------------  ---------------      ----- ------------  ---------------
    66      1.442247  5 bq s                 52     -1.056642  4 bq px         
    75     -0.970454  6 bq s                 40      0.697194  3 H  py         
    72     -0.574340  5 bq py                71      0.488880  5 bq px         
    13      0.479682  1 O  pz                53      0.479980  4 bq py         
    26      0.395995  2 H  s                 35     -0.394802  3 H  s          

 Vector   22  Occ=0.000000D+00  E= 4.002273D-01
              MO Center=  1.1D-01, -1.3D+00, -3.7D-01, r^2= 7.3D+00
   Bfn.  Coefficient  Atom+Function         Bfn.  Coefficient  Atom+Function  
  ----- ------------  ---------------      ----- ------------  ---------------
    45      2.381794  4 bq s                  4     -2.035366  1 O  s          
    75     -1.771067  6 bq s                 25      1.293523  2 H  s          
    31     -1.149011  2 H  py                54      0.902730  4 bq pz         
    12      0.820370  1 O  py                66     -0.784452  5 bq s          
    11     -0.759716  1 O  px                34      0.685218  3 H  s          

 Vector   23  Occ=0.000000D+00  E= 4.230381D-01
              MO Center= -1.2D-01, -2.7D+00,  1.6D-02, r^2= 6.0D+00
   Bfn.  Coefficient  Atom+Function         Bfn.  Coefficient  Atom+Function  
  ----- ------------  ---------------      ----- ------------  ---------------
    45      2.554189  4 bq s                 75     -1.849582  6 bq s          
     4      1.792311  1 O  s                 66     -1.431616  5 bq s          
    25     -1.363704  2 H  s                 34     -0.766997  3 H  s          
    73      0.693713  5 bq pz                82      0.644686  6 bq pz         
    40      0.457942  3 H  py                11      0.452505  1 O  px         

 Vector   24  Occ=0.000000D+00  E= 4.374759D-01
              MO Center= -2.9D-02, -2.1D+00, -2.8D-02, r^2= 7.2D+00
   Bfn.  Coefficient  Atom+Function         Bfn.  Coefficient  Atom+Function  
  ----- ------------  ---------------      ----- ------------  ---------------
     4      2.448154  1 O  s                 34     -1.790616  3 H  s          
    54      1.267768  4 bq pz                11      1.193929  1 O  px         
    75     -1.055844  6 bq s                 25     -0.960555  2 H  s          
    45      0.853641  4 bq s                 73     -0.733361  5 bq pz         
    66     -0.718184  5 bq s                 53     -0.659307  4 bq py         

 Vector   25  Occ=0.000000D+00  E= 4.658329D-01
              MO Center=  1.3D-01, -1.7D+00, -3.3D-01, r^2= 8.0D+00
   Bfn.  Coefficient  Atom+Function         Bfn.  Coefficient  Atom+Function  
  ----- ------------  ---------------      ----- ------------  ---------------
    45      5.576644  4 bq s                  4     -4.137981  1 O  s          
    75     -3.179961  6 bq s                 25      3.003400  2 H  s          
    66     -2.745379  5 bq s                 54      1.822952  4 bq pz         
    53      1.285542  4 bq py                11     -1.114707  1 O  px         
    32      1.053609  2 H  pz                12      0.653654  1 O  py         

 Vector   26  Occ=0.000000D+00  E= 4.855288D-01
              MO Center= -3.6D-03, -3.3D+00,  1.0D-02, r^2= 5.6D+00
   Bfn.  Coefficient  Atom+Function         Bfn.  Coefficient  Atom+Function  
  ----- ------------  ---------------      ----- ------------  ---------------
    45      6.528480  4 bq s                 66     -3.479561  5 bq s          
    75     -2.975017  6 bq s                 71      1.191527  5 bq px         
    44      1.130539  4 bq s                 54      1.075800  4 bq pz         
    80     -1.022436  6 bq px                67     -0.816980  5 bq s          
    73      0.787899  5 bq pz                 4      0.773983  1 O  s          

 Vector   27  Occ=0.000000D+00  E= 5.225825D-01
              MO Center= -4.4D-01, -2.0D+00, -6.9D-03, r^2= 7.6D+00
   Bfn.  Coefficient  Atom+Function         Bfn.  Coefficient  Atom+Function  
  ----- ------------  ---------------      ----- ------------  ---------------
     4      3.835293  1 O  s                 34     -2.909571  3 H  s          
    81     -1.400019  6 bq py                75      1.377901  6 bq s          
    66     -1.226713  5 bq s                 12     -1.166557  1 O  py         
    25     -1.095102  2 H  s                 80      0.913283  6 bq px         
    41      0.875849  3 H  pz                31      0.806012  2 H  py         


 center of mass
 --------------
 x =  -0.09898152 y =   0.00281386 z =  -0.00025862

 moments of inertia (a.u.)
 ------------------
           4.171449464049           0.061893364156           0.017036582942
           0.061893364156           6.386290330196           0.425248699238
           0.017036582942           0.425248699238           2.306086118138

  Mulliken analysis of the total density
  --------------------------------------

    Atom       Charge   Shell Charges
 -----------   ------   -------------------------------------------------------
    1 O    8     8.32   2.00  0.84  0.82  0.08  2.82  1.64  0.12  0.01 -0.02
    2 H    1     0.84   0.72  0.02 -0.00  0.08  0.02
    3 H    1     0.84   0.72  0.02 -0.00  0.08  0.02
    4 X    0     0.00   0.00  0.00 -0.00  0.00 -0.00  0.00 -0.00 -0.00  0.00
    5 X    0     0.00   0.00  0.00 -0.00 -0.00  0.00
    6 X    0    -0.00  -0.00 -0.00 -0.00 -0.00 -0.00

       Multipole analysis of the density wrt the origin
       ------------------------------------------------

     L   x y z        total         open         nuclear
     -   - - -        -----         ----         -------
     0   0 0 0      0.000000      0.000000     10.000000

     1   1 0 0      0.791021      0.000000      0.000000
     1   0 1 0     -0.022298      0.000000      0.000000
     1   0 0 1      0.001998      0.000000      0.000000

     2   2 0 0     -4.645294      0.000000      2.020461
     2   1 1 0     -0.025114      0.000000     -0.055089
     2   1 0 1     -0.010684      0.000000     -0.017486
     2   0 2 0     -5.635086      0.000000      0.045089
     2   0 1 1     -0.253056      0.000000     -0.421930
     2   0 0 2     -3.205164      0.000000      4.093791


------------------------------------------------------------
EAF file 0: "./input_A_AB.aoints.0" size=3670016 bytes
------------------------------------------------------------
               write      read    awrite     aread      wait
               -----      ----    ------     -----      ----
     calls:        7         1         0         6         6
   data(b): 3.67e+06  5.24e+05  0.00e+00  3.15e+06
   time(s): 0.00e+00  0.00e+00  0.00e+00  0.00e+00  0.00e+00
rate(mb/s): 0.00e+00  0.00e+00
------------------------------------------------------------


 Parallel integral file used     124 records with       0 large values



                   Four-Index Transformation
                   -------------------------
          Number of basis functions:             82
          Number of shells:                      38
          Number of occupied orbitals:            5
          Number of occ. correlated orbitals:     5
          Block length:                          16
          Superscript MO index range:      1 -    5
          Subscript MO index range:        1 -   82
          MO coefficients read from:  ./input_A_AB.movecs      
          Number of operator matrices in core:   30
          Half-transformed integrals produced

     Pass:    1     Index range:    1  -    5     Time:      1.80
 ------------------------------------------
 MP2 Energy (coupled cluster initial guess)
 ------------------------------------------
 Reference energy:            -76.040828459019579
 MP2 Corr. energy:             -0.222767144798812
 Total MP2 energy:            -76.263595603818388


 ****************************************************************************
              the segmented parallel ccsd program:    8 nodes
 ****************************************************************************




 level of theory    ccsd(t)
 number of core         0
 number of occupied     5
 number of virtual     77
 number of deleted      0
 total functions       82
 number of shells      38
 basis label          566



   ***** ccsd parameters *****
   iprt   =     0
   convi  =  0.100E-05
   maxit  =    20
   mxvec  =     5
 memory           1073731972
  Using  1 OpenMP thread(s) in CCSD
  avail0,avail1,avail0-avail1                 17977                17977                    0
  avail0,avail1,avail0-avail1                 17977                17978                   -1
  avail0,avail1,avail0-avail1                 17977                17992                  -15
  avail0,avail1,avail0-avail1                 17977                17992                  -15
  Restarting from old vector in ./input_A_AB.t2


-------------------------------------------------------------------------
 iter     correlation     delta       rms       T2     Non-T2      Main
             energy      energy      error      ampl     ampl      Block
                                                time     time      time
-------------------------------------------------------------------------
   1     -0.2272051727 -2.272D-01  3.039D-01     3.93     0.00     3.25
   2     -0.2258917741  1.313D-03  1.491D-01     1.19     0.03     0.74
   3     -0.2292570300 -3.365D-03  2.008D-02     1.16     0.01     0.55
   4     -0.2298554178 -5.984D-04  1.672D-02     1.14     0.00     0.75
   5     -0.2301128339 -2.574D-04  1.516D-03     1.77     0.01     0.84
   6     -0.2302191979 -1.064D-04  5.624D-04     2.81     0.01     1.36
   7     -0.2302313617 -1.216D-05  3.621D-04     3.98     0.08     1.29
   8     -0.2302288935  2.468D-06  8.392D-05     4.55     0.14     1.55
   9     -0.2302288994 -5.909D-09  2.006D-05     1.26     0.04     0.65
  10     -0.2302268930  2.006D-06  1.686D-05     0.43     0.01     0.30
  11     -0.2302271100 -2.170D-07  4.866D-06     0.37     0.00     0.29
  12     -0.2302271761 -6.609D-08  8.055D-06     0.44     0.00     0.35
  13     -0.2302272776 -1.015D-07  3.010D-06     0.42     0.00     0.34
  14     -0.2302273227 -4.508D-08  4.712D-07     0.48     0.00     0.36
                  *************converged*************
-------------------------------------------------------------------------

 -----------
 CCSD Energy
 -----------
 Reference energy:             -76.040828459019579
 CCSD corr. energy:             -0.230227322688368
 Total CCSD energy:            -76.271055781707943


 --------------------------------
 Spin Component Scaled (SCS) CCSD
 --------------------------------
 Same spin contribution:                 -0.050246841684193
 Same spin scaling factor:                1.130000000000000
 Opposite spin contribution:             -0.179980481004175
 Opposite spin scaling fact.:             1.270000000000000
 SCS-CCSD correlation energy:            -0.285354141978440
 Total SCS-CCSD energy:                 -76.326182600998024
 memory           1073731972


*********triples calculation*********

nkpass=    1; nvpass=    1; memdrv=         170401; memtrn=         942207; memavail=     1073731572
 memory available/node                     1073731572
 total number of virtual orbitals        77
 number of virtuals per integral pass    77
 number of integral evaluations           1
 number of occupied per triples pass      5
 number of triples passes                 1

 commencing integral evaluation        1 at          28.30
  symmetry use  F
task         2 out of       741 done   0%  at       0.0 secs
task        46 out of       741 done   6%  at       0.2 secs
task        81 out of       741 done  10%  at       0.4 secs
task       114 out of       741 done  15%  at       0.8 secs
task       150 out of       741 done  20%  at       0.9 secs
task       193 out of       741 done  26%  at       1.0 secs
task       223 out of       741 done  30%  at       1.1 secs
task       263 out of       741 done  35%  at       1.2 secs
task       301 out of       741 done  40%  at       1.3 secs
task       342 out of       741 done  46%  at       1.4 secs
task       376 out of       741 done  50%  at       1.5 secs
task       415 out of       741 done  56%  at       1.6 secs
task       446 out of       741 done  60%  at       1.6 secs
task       487 out of       741 done  65%  at       1.7 secs
task       519 out of       741 done  70%  at       1.7 secs
task       557 out of       741 done  75%  at       1.8 secs
task       599 out of       741 done  80%  at       1.9 secs
task       638 out of       741 done  86%  at       2.0 secs
task       674 out of       741 done  90%  at       2.0 secs
task       711 out of       741 done  95%  at       2.1 secs
 commencing triples evaluation - blocking       1
 ccsd(t): done        1 out of       77 progress:    1.3%
 ccsd(t): done        2 out of       77 progress:    2.6%
 ccsd(t): done        3 out of       77 progress:    3.9%
 ccsd(t): done        4 out of       77 progress:    5.2%
 ccsd(t): done        5 out of       77 progress:    6.5%
 ccsd(t): done        6 out of       77 progress:    7.8%
 ccsd(t): done        7 out of       77 progress:    9.1%
 ccsd(t): done        8 out of       77 progress:   10.4%
 ccsd(t): done        9 out of       77 progress:   11.7%
 ccsd(t): done       10 out of       77 progress:   13.0%
 ccsd(t): done       11 out of       77 progress:   14.3%
 ccsd(t): done       12 out of       77 progress:   15.6%
 ccsd(t): done       13 out of       77 progress:   16.9%
 ccsd(t): done       14 out of       77 progress:   18.2%
 ccsd(t): done       15 out of       77 progress:   19.5%
 ccsd(t): done       16 out of       77 progress:   20.8%
 ccsd(t): done       17 out of       77 progress:   22.1%
 ccsd(t): done       18 out of       77 progress:   23.4%
 ccsd(t): done       19 out of       77 progress:   24.7%
 ccsd(t): done       20 out of       77 progress:   26.0%
 ccsd(t): done       21 out of       77 progress:   27.3%
 ccsd(t): done       22 out of       77 progress:   28.6%
 ccsd(t): done       23 out of       77 progress:   29.9%
 ccsd(t): done       24 out of       77 progress:   31.2%
 ccsd(t): done       25 out of       77 progress:   32.5%
 ccsd(t): done       26 out of       77 progress:   33.8%
 ccsd(t): done       27 out of       77 progress:   35.1%
 ccsd(t): done       28 out of       77 progress:   36.4%
 ccsd(t): done       29 out of       77 progress:   37.7%
 ccsd(t): done       30 out of       77 progress:   39.0%
 ccsd(t): done       31 out of       77 progress:   40.3%
 ccsd(t): done       32 out of       77 progress:   41.6%
 ccsd(t): done       33 out of       77 progress:   42.9%
 ccsd(t): done       34 out of       77 progress:   44.2%
 ccsd(t): done       35 out of       77 progress:   45.5%
 ccsd(t): done       36 out of       77 progress:   46.8%
 ccsd(t): done       37 out of       77 progress:   48.1%
 ccsd(t): done       38 out of       77 progress:   49.4%
 ccsd(t): done       39 out of       77 progress:   50.6%
 ccsd(t): done       40 out of       77 progress:   51.9%
 ccsd(t): done       41 out of       77 progress:   53.2%
 ccsd(t): done       42 out of       77 progress:   54.5%
 ccsd(t): done       43 out of       77 progress:   55.8%
 ccsd(t): done       44 out of       77 progress:   57.1%
 ccsd(t): done       45 out of       77 progress:   58.4%
 ccsd(t): done       46 out of       77 progress:   59.7%
 ccsd(t): done       47 out of       77 progress:   61.0%
 ccsd(t): done       48 out of       77 progress:   62.3%
 ccsd(t): done       49 out of       77 progress:   63.6%
 ccsd(t): done       50 out of       77 progress:   64.9%
 ccsd(t): done       51 out of       77 progress:   66.2%
 ccsd(t): done       52 out of       77 progress:   67.5%
 ccsd(t): done       53 out of       77 progress:   68.8%
 ccsd(t): done       54 out of       77 progress:   70.1%
 ccsd(t): done       55 out of       77 progress:   71.4%
 ccsd(t): done       56 out of       77 progress:   72.7%
 ccsd(t): done       57 out of       77 progress:   74.0%
 ccsd(t): done       58 out of       77 progress:   75.3%
 ccsd(t): done       59 out of       77 progress:   76.6%
 ccsd(t): done       60 out of       77 progress:   77.9%
 ccsd(t): done       61 out of       77 progress:   79.2%
 ccsd(t): done       62 out of       77 progress:   80.5%
 ccsd(t): done       63 out of       77 progress:   81.8%
 ccsd(t): done       64 out of       77 progress:   83.1%
 ccsd(t): done       65 out of       77 progress:   84.4%
 ccsd(t): done       66 out of       77 progress:   85.7%
 ccsd(t): done       67 out of       77 progress:   87.0%
 ccsd(t): done       68 out of       77 progress:   88.3%
 ccsd(t): done       69 out of       77 progress:   89.6%
 ccsd(t): done       70 out of       77 progress:   90.9%
 ccsd(t): done       71 out of       77 progress:   92.2%
 ccsd(t): done       72 out of       77 progress:   93.5%
 ccsd(t): done       73 out of       77 progress:   94.8%
 ccsd(t): done       74 out of       77 progress:   96.1%
 ccsd(t): done       75 out of       77 progress:   97.4%
 ccsd(t): done       76 out of       77 progress:   98.7%
 ccsd(t): done       77 out of       77 progress:  100.0%
 Time for integral evaluation pass     1        2.14
 Time for triples evaluation pass      1        1.31

 pseudo-e(mp4)  -0.57357622644905E-02
 pseudo-e(mp5)   0.40795138138132E-03
        e(t)    -0.53278108831092E-02

 --------------
 CCSD(T) Energy
 --------------
 Reference energy:                     -76.040828459019579

 CCSD corr. energy:                     -0.230227322688368
 T(CCSD) corr. energy:                  -0.005735762264490
 Total CCSD+T(CCSD) energy:            -76.276791543972436

 CCSD corr. energy:                     -0.230227322688368
 (T) corr. energy:                      -0.005327810883109
 Total CCSD(T) energy:                 -76.276383592591060

 routine      calls  cpu(0)   cpu-min  cpu-ave  cpu-max   i/o 
 aoccsd          1     0.02     0.02     0.02     0.02    0.00
 iterdrv         1     1.00     1.00     1.04     1.05    0.00
 pampt          14     2.17     2.16     2.17     2.18    0.00
 t2pm           14     0.67     0.66     0.66     0.67    0.00
 sxy            14     1.44     0.50     1.09     1.48    0.00
 ints        68698     0.68     0.65     0.67     0.69    0.00
 f_write       186     0.13     0.12     0.14     0.16    0.00
 t2eri        1302     1.34     1.28     1.33     1.37    0.00
 idx2         1302     8.75     8.75     9.15     9.73    0.00
 idx34          14     0.02     0.01     0.02     0.03    0.00
 ht2pm          14     1.16     1.15     1.15     1.16    0.00
 itm            14     7.26     7.25     7.26     7.26    0.00
 pdiis          14     0.11     0.06     0.07     0.11    0.00
 r_read       1209     0.26     0.20     0.23     0.26    0.00
 triples         1     0.00     0.00     0.00     0.00    0.00
 rdtrpo          1     0.00     0.00     0.00     0.00    0.00
 trpmos          1     2.14     2.14     2.14     2.14    0.00
 trpdrv          1     0.79     0.77     0.80     0.84    0.00
 dovvv        1470     0.39     0.36     0.38     0.40    0.00
 doooo        1470     0.04     0.04     0.04     0.05    0.00
 tengy        1225     0.09     0.08     0.09     0.09    0.00
 Total                28.46    28.45    28.47    28.48    0.00

 Task  times  cpu:       31.7s     wall:       31.7s


                                NWChem Input Module
                                -------------------


 Summary of allocated global arrays
-----------------------------------
  No active global arrays


MA_summarize_allocated_blocks: starting scan ...
MA_summarize_allocated_blocks: scan completed: 0 heap blocks, 0 stack blocks
MA usage statistics:

	allocation statistics:
					      heap	     stack
					      ----	     -----
	current number of blocks	         0	         0
	maximum number of blocks	        17	        41
	current total bytes		         0	         0
	maximum total bytes		  13130544	7731415912
	maximum total K-bytes		     13131	   7731416
	maximum total M-bytes		        14	      7732


                                     CITATION
                                     --------
                Please cite the following reference when publishing
                           results obtained with NWChem:

          E. Apra, E. J. Bylaska, W. A. de Jong, N. Govind, K. Kowalski,
       T. P. Straatsma, M. Valiev, H. J. J. van Dam, Y. Alexeev, J. Anchell,
       V. Anisimov, F. W. Aquino, R. Atta-Fynn, J. Autschbach, N. P. Bauman,
     J. C. Becca, D. E. Bernholdt, K. Bhaskaran-Nair, S. Bogatko, P. Borowski,
         J. Boschen, J. Brabec, A. Bruner, E. Cauet, Y. Chen, G. N. Chuev,
      C. J. Cramer, J. Daily, M. J. O. Deegan, T. H. Dunning Jr., M. Dupuis,
   K. G. Dyall, G. I. Fann, S. A. Fischer, A. Fonari, H. Fruchtl, L. Gagliardi,
      J. Garza, N. Gawande, S. Ghosh, K. Glaesemann, A. W. Gotz, J. Hammond,
       V. Helms, E. D. Hermes, K. Hirao, S. Hirata, M. Jacquelin, L. Jensen,
   B. G. Johnson, H. Jonsson, R. A. Kendall, M. Klemm, R. Kobayashi, V. Konkov,
      S. Krishnamoorthy, M. Krishnan, Z. Lin, R. D. Lins, R. J. Littlefield,
      A. J. Logsdail, K. Lopata, W. Ma, A. V. Marenich, J. Martin del Campo,
   D. Mejia-Rodriguez, J. E. Moore, J. M. Mullin, T. Nakajima, D. R. Nascimento,
    J. A. Nichols, P. J. Nichols, J. Nieplocha, A. Otero-de-la-Roza, B. Palmer,
    A. Panyala, T. Pirojsirikul, B. Peng, R. Peverati, J. Pittner, L. Pollack,
   R. M. Richard, P. Sadayappan, G. C. Schatz, W. A. Shelton, D. W. Silverstein,
   D. M. A. Smith, T. A. Soares, D. Song, M. Swart, H. L. Taylor, G. S. Thomas,
            V. Tipparaju, D. G. Truhlar, K. Tsemekhman, T. Van Voorhis,
      A. Vazquez-Mayagoitia, P. Verma, O. Villa, A. Vishnu, K. D. Vogiatzis,
        D. Wang, J. H. Weare, M. J. Williamson, T. L. Windus, K. Wolinski,
        A. T. Wong, Q. Wu, C. Yang, Q. Yu, M. Zacharias, Z. Zhang, Y. Zhao,
                                and R. J. Harrison
                        "NWChem: Past, present, and future
                         J. Chem. Phys. 152, 184102 (2020)
                               doi:10.1063/5.0004997

                                      AUTHORS
                                      -------
  E. Apra, E. J. Bylaska, N. Govind, K. Kowalski, M. Valiev, D. Mejia-Rodriguez,
       A. Kunitsa, N. P. Bauman, A. Panyala, W. A. de Jong, T. P. Straatsma,
   H. J. J. van Dam, D. Wang, T. L. Windus, J. Hammond, J. Autschbach, A. Woods,
    K. Bhaskaran-Nair, J. Brabec, K. Lopata, S. A. Fischer, S. Krishnamoorthy,
     M. Jacquelin, W. Ma, M. Klemm, O. Villa, Y. Chen, V. Anisimov, F. Aquino,
     S. Hirata, M. T. Hackler, E. Hermes, L. Jensen, J. E. Moore, J. C. Becca,
      V. Konjkov, T. Risthaus, M. Malagoli, A. Marenich, A. Otero-de-la-Roza,
        J. Mullin, P. Nichols, R. Peverati, J. Pittner, Y. Zhao, P.-D. Fan,
        A. Fonari, M. J. Williamson, R. J. Harrison, J. R. Rehr, M. Dupuis,
     D. Silverstein, D. M. A. Smith, J. Nieplocha, V. Tipparaju, M. Krishnan,
     B. E. Van Kuiken, A. Vazquez-Mayagoitia, M. Swart, Q. Wu, T. Van Voorhis,
     A. A. Auer, M. Nooijen, L. D. Crosby, E. Brown, G. Cisneros, G. I. Fann,
   H. Fruchtl, J. Garza, K. Hirao, R. A. Kendall, J. A. Nichols, K. Tsemekhman,
    K. Wolinski, J. Anchell, D. E. Bernholdt, P. Borowski, T. Clark, D. Clerc,
   H. Dachsel, M. J. O. Deegan, K. Dyall, D. Elwood, E. Glendening, M. Gutowski,
   A. C. Hess, J. Jaffe, B. G. Johnson, J. Ju, R. Kobayashi, R. Kutteh, Z. Lin,
   R. Littlefield, X. Long, B. Meng, T. Nakajima, S. Niu, L. Pollack, M. Rosing,
   K. Glaesemann, G. Sandrone, M. Stave, H. Taylor, G. Thomas, J. H. van Lenthe,
                               A. T. Wong, Z. Zhang.

 Total times  cpu:       31.8s     wall:       31.8s
