 argument  1 = FF_distance_1.5_0.75_0.75/input_dimer.txt
                                         
                                         


             Northwest Computational Chemistry Package (NWChem) 7.2.3
             --------------------------------------------------------


                    Environmental Molecular Sciences Laboratory
                       Pacific Northwest National Laboratory
                                Richland, WA 99352

                              Copyright (c) 1994-2022
                       Pacific Northwest National Laboratory
                            Battelle Memorial Institute

             NWChem is an open-source computational chemistry package
                        distributed under the terms of the
                      Educational Community License (ECL) 2.0
             A copy of the license is included with this distribution
                              in the LICENSE.TXT file

                                  ACKNOWLEDGMENT
                                  --------------

            This software and its documentation were developed at the
            EMSL at Pacific Northwest National Laboratory, a multiprogram
            national laboratory, operated for the U.S. Department of Energy
            by Battelle under Contract Number DE-AC05-76RL01830. Support
            for this work was provided by the Department of Energy Office
            of Biological and Environmental Research, Office of Basic
            Energy Sciences, and the Office of Advanced Scientific Computing.


           Job information
           ---------------

    hostname        = visitor-wireless1-147-155-221-221.ameslab.gov
    program         = nwchem
    date            = Fri Jun  6 12:27:18 2025

    compiled        = Thu_Dec_26_16:03:44_2024
    source          = /private/tmp/nwchem-20241226-24280-orrtsi/nwchem-7.2.3
    nwchem branch   = 7.2.3
    nwchem revision = d690e065
    ga revision     = 5.8.0
    use scalapack   = T
    input           = FF_distance_1.5_0.75_0.75/input_dimer.txt
    prefix          = input_dimer.
    data base       = ./input_dimer.db
    status          = restart
    nproc           =        1
    time left       =     -1s



           Memory information
           ------------------

    heap     =   26214396 doubles =    200.0 Mbytes
    stack    =   26214401 doubles =    200.0 Mbytes
    global   =   52428800 doubles =    400.0 Mbytes (distinct from heap & stack)
    total    =  104857597 doubles =    800.0 Mbytes
    verify   = yes
    hardfail = no 


           Directory information
           ---------------------

  0 permanent = .
  0 scratch   = .


           Previous task information
           -------------------------

    Theory    = ccsd(t)                         
    Operation = energy                        
    Status    = ok                            
    Qmmm      = F
    Ignore    = F


           Geometries in the database
           --------------------------

       Name                              Natoms  Last Modified
       --------------------------------  ------  ------------------------
    1  geometry                               4  Fri Jun  6 12:26:58 2025  

  The geometry named "geometry" is the default for restart



           Basis sets in the database
           --------------------------

       Name                              Natoms  Last Modified
        --------------------------------  ------  ------------------------
    1  ao basis                               2  Fri Jun  6 12:26:58 2025  

  The basis set named "ao basis" is the default AO basis for restart




                                NWChem Input Module
                                -------------------



 Scaling coordinates for geometry "geometry" by  1.889725989
 (inverse scale =  0.529177249)

 C2H symmetry detected

          ------
          auto-z
          ------
  autoz: The atoms group into disjoint clusters
 cluster   1:    1    2
 cluster   2:    3    4
 Connecting clusters   1   2 via atoms    2    3 r = 1.84
  autoz: regenerating connections with new bonds
  no constraints, skipping    0.0000000000000000     
  no constraints, skipping    0.0000000000000000     


                             Geometry "geometry" -> ""
                             -------------------------

 Output coordinates in angstroms (scale by  1.889725989 to convert to a.u.)

  No.       Tag          Charge          X              Y              Z
 ---- ---------------- ---------- -------------- -------------- --------------
    1 H                    1.0000     0.75832925     1.34739109     0.00000000
    2 F                    9.0000    -0.05913089     0.91665344     0.00000000
    3 F                    9.0000     0.05913089    -0.91665344     0.00000000
    4 H                    1.0000    -0.75832925    -1.34739109     0.00000000

      Atomic Mass 
      ----------- 

      H                  1.007825
      F                 18.998400


 Effective nuclear repulsion energy (a.u.)      37.8314612384

            Nuclear Dipole moment (a.u.) 
            ----------------------------
        X                 Y               Z
 ---------------- ---------------- ----------------
     0.0000000000    -0.0000000000     0.0000000000

      Symmetry information
      --------------------

 Group name             C2h       
 Group number             21
 Group order               4
 No. of unique centers     2

      Symmetry unique atoms

     1    2



                                Z-matrix (autoz)
                                -------- 

 Units are Angstrom for bonds and degrees for angles

      Type          Name      I     J     K     L     M      Value
      ----------- --------  ----- ----- ----- ----- ----- ----------
    1 Stretch                  1     2                       0.92400
    2 Stretch                  2     3                       1.83712
    3 Stretch                  3     4                       0.92400
    4 Bend                     1     2     3               114.09484
    5 Bend                     2     3     4               114.09484
    6 Torsion                  1     2     3     4         180.00000


            XYZ format geometry
            -------------------
     4
 geometry
 H                     0.75832925     1.34739109     0.00000000
 F                    -0.05913089     0.91665344     0.00000000
 F                     0.05913089    -0.91665344     0.00000000
 H                    -0.75832925    -1.34739109     0.00000000

 ==============================================================================
                                internuclear distances
 ------------------------------------------------------------------------------
       center one      |      center two      | atomic units |  angstroms
 ------------------------------------------------------------------------------
    2 F                |   1 H                |     1.74611  |     0.92400
    4 H                |   3 F                |     1.74611  |     0.92400
 ------------------------------------------------------------------------------
                         number of included internuclear distances:          2
 ==============================================================================



  library name resolved from: .nwchemrc
  library file name is: </opt/homebrew/Cellar/nwchem/7.2.3_1/share/nwchem/libraries/>
  
                      Basis "ao basis" -> "" (spherical)
                      -----
  H (Hydrogen)
  ------------
            Exponent  Coefficients 
       -------------- ---------------------------------------------------------
  1 S  1.30100000E+01  0.019685
  1 S  1.96200000E+00  0.137977
  1 S  4.44600000E-01  0.478148

  2 S  1.22000000E-01  1.000000

  3 S  2.97400000E-02  1.000000

  4 P  7.27000000E-01  1.000000

  5 P  1.41000000E-01  1.000000

  F (Fluorine)
  ------------
            Exponent  Coefficients 
       -------------- ---------------------------------------------------------
  1 S  1.47100000E+04  0.000721
  1 S  2.20700000E+03  0.005553
  1 S  5.02800000E+02  0.028267
  1 S  1.42600000E+02  0.106444
  1 S  4.64700000E+01  0.286814
  1 S  1.67000000E+01  0.448641
  1 S  6.35600000E+00  0.264761
  1 S  1.31600000E+00  0.015333

  2 S  1.47100000E+04 -0.000165
  2 S  2.20700000E+03 -0.001308
  2 S  5.02800000E+02 -0.006495
  2 S  1.42600000E+02 -0.026691
  2 S  4.64700000E+01 -0.073690
  2 S  1.67000000E+01 -0.170776
  2 S  6.35600000E+00 -0.112327
  2 S  1.31600000E+00  0.562814

  3 S  3.89700000E-01  1.000000

  4 S  9.86300000E-02  1.000000

  5 P  2.26700000E+01  0.044878
  5 P  4.97700000E+00  0.235718
  5 P  1.34700000E+00  0.508521

  6 P  3.47100000E-01  1.000000

  7 P  8.50200000E-02  1.000000

  8 D  1.64000000E+00  1.000000

  9 D  4.64000000E-01  1.000000



 Summary of "ao basis" -> "" (spherical)
 ------------------------------------------------------------------------------
       Tag                 Description            Shells   Functions and Types
 ---------------- ------------------------------  ------  ---------------------
 H                        aug-cc-pvdz                5        9   3s2p
 F                        aug-cc-pvdz                9       23   4s3p2d


                                 NWChem SCF Module
                                 -----------------



  ao basis        = "ao basis"
  functions       =    64
  atoms           =     4
  closed shells   =    10
  open shells     =     0
  charge          =   0.00
  wavefunction    = RHF 
  input vectors   = ./input_dimer.movecs
  output vectors  = ./input_dimer.movecs
  use symmetry    = T
  symmetry adapt  = T


 Summary of "ao basis" -> "ao basis" (spherical)
 ------------------------------------------------------------------------------
       Tag                 Description            Shells   Functions and Types
 ---------------- ------------------------------  ------  ---------------------
 H                        aug-cc-pvdz                5        9   3s2p
 F                        aug-cc-pvdz                9       23   4s3p2d


      Symmetry analysis of basis
      --------------------------

        ag         23
        au          9
        bg          9
        bu         23


 Forming initial guess at       0.0s


 Loading old vectors from job with title :




      Symmetry analysis of molecular orbitals - initial
      -------------------------------------------------

  Numbering of irreducible representations: 

     1 ag          2 au          3 bg          4 bu      

  Orbital symmetries:

     1 bu          2 ag          3 ag          4 bu          5 ag      
     6 bu          7 ag          8 au          9 bg         10 bu      
    11 ag         12 bu         13 bu         14 ag         15 bu      
    16 au         17 ag         18 ag         19 bg         20 bu      


 Starting SCF solution at       0.0s



 ----------------------------------------------
         Quadratically convergent ROHF

 Convergence threshold     :          1.000E-06
 Maximum no. of iterations :           30
 Final Fock-matrix accuracy:          1.000E-08
 ----------------------------------------------


 Integral file          = ./input_dimer.aoints.0
 Record size in doubles =  65536        No. of integs per rec  =  43688
 Max. records in memory =     25        Max. records in file   =   8211
 No. of bits per label  =      8        No. of bits per value  =     64


 #quartets = 4.724D+04 #integrals = 6.742D+05 #direct =  0.0% #cached =100.0%


              iter       energy          gnorm     gmax       time
             ----- ------------------- --------- --------- --------
                 1     -200.0011660679  3.51D-01  9.30D-02      0.1
                 2     -200.0082122098  1.82D-02  4.72D-03      0.1
                 3     -200.0082508871  2.87D-04  6.10D-05      0.2
                 4     -200.0082508956  6.38D-08  1.98D-08      0.2


       Final RHF  results 
       ------------------ 

         Total SCF energy =   -200.008250895583
      One-electron energy =   -356.293409621420
      Two-electron energy =    118.453697487406
 Nuclear repulsion energy =     37.831461238431

        Time for solution =      0.2s



       Symmetry analysis of molecular orbitals - final
       -----------------------------------------------

  Numbering of irreducible representations: 

     1 ag          2 au          3 bg          4 bu      

  Orbital symmetries:

     1 bu          2 ag          3 ag          4 bu          5 ag      
     6 bu          7 ag          8 au          9 bg         10 bu      
    11 ag         12 bu         13 bu         14 ag         15 bu      
    16 au         17 ag         18 bg         19 ag         20 bu      

             Final eigenvalues
             -----------------

              1      
    1  -26.2733
    2  -26.2733
    3   -1.6097
    4   -1.5570
    5   -0.7742
    6   -0.7485
    7   -0.6649
    8   -0.6480
    9   -0.6011
   10   -0.5429
   11    0.0414
   12    0.0515
   13    0.1911
   14    0.2139
   15    0.2295
   16    0.2497
   17    0.2720
   18    0.2967
   19    0.2988
   20    0.3512

                       ROHF Final Molecular Orbital Analysis
                       -------------------------------------

 Vector    2  Occ=2.000000D+00  E=-2.627327D+01  Symmetry=ag
              MO Center= -2.0D-14,  3.5D-13, -4.6D-13, r^2= 8.6D-01
   Bfn.  Coefficient  Atom+Function         Bfn.  Coefficient  Atom+Function  
  ----- ------------  ---------------      ----- ------------  ---------------
    10      0.707878  2 F  s                 33      0.707878  3 F  s          

 Vector    3  Occ=2.000000D+00  E=-1.609736D+00  Symmetry=ag
              MO Center=  7.7D-13,  9.4D-13, -8.2D-12, r^2= 1.2D+00
   Bfn.  Coefficient  Atom+Function         Bfn.  Coefficient  Atom+Function  
  ----- ------------  ---------------      ----- ------------  ---------------
    11      0.339893  2 F  s                 34      0.339893  3 F  s          
    12      0.329280  2 F  s                 35      0.329280  3 F  s          

 Vector    4  Occ=2.000000D+00  E=-1.557041D+00  Symmetry=bu
              MO Center=  3.1D-12,  2.6D-12,  7.9D-20, r^2= 1.4D+00
   Bfn.  Coefficient  Atom+Function         Bfn.  Coefficient  Atom+Function  
  ----- ------------  ---------------      ----- ------------  ---------------
    11      0.346236  2 F  s                 34     -0.346236  3 F  s          
    12      0.342652  2 F  s                 35     -0.342652  3 F  s          
     1      0.150313  1 H  s                 56     -0.150313  4 H  s          

 Vector    5  Occ=2.000000D+00  E=-7.742021D-01  Symmetry=ag
              MO Center=  8.7D-16,  1.5D-15, -2.2D-26, r^2= 1.4D+00
   Bfn.  Coefficient  Atom+Function         Bfn.  Coefficient  Atom+Function  
  ----- ------------  ---------------      ----- ------------  ---------------
    15      0.342178  2 F  py                38     -0.342178  3 F  py         
     1      0.261965  1 H  s                 56      0.261965  4 H  s          
    14      0.215800  2 F  px                37     -0.215800  3 F  px         
    18      0.189075  2 F  py                41     -0.189075  3 F  py         

 Vector    6  Occ=2.000000D+00  E=-7.485296D-01  Symmetry=bu
              MO Center= -1.0D-11,  1.2D-11,  4.7D-19, r^2= 1.5D+00
   Bfn.  Coefficient  Atom+Function         Bfn.  Coefficient  Atom+Function  
  ----- ------------  ---------------      ----- ------------  ---------------
    14      0.384805  2 F  px                37      0.384805  3 F  px         
     1      0.274150  1 H  s                 56     -0.274150  4 H  s          
    17      0.195372  2 F  px                40      0.195372  3 F  px         
    12     -0.186557  2 F  s                 35      0.186557  3 F  s          

 Vector    7  Occ=2.000000D+00  E=-6.648927D-01  Symmetry=ag
              MO Center=  5.2D-12,  6.7D-13, -1.3D-11, r^2= 1.5D+00
   Bfn.  Coefficient  Atom+Function         Bfn.  Coefficient  Atom+Function  
  ----- ------------  ---------------      ----- ------------  ---------------
    14      0.357523  2 F  px                37     -0.357523  3 F  px         
    15     -0.275721  2 F  py                38      0.275721  3 F  py         
    17      0.211699  2 F  px                40     -0.211699  3 F  px         
    18     -0.193171  2 F  py                41      0.193171  3 F  py         

 Vector    8  Occ=2.000000D+00  E=-6.480299D-01  Symmetry=au
              MO Center= -4.2D-18, -1.0D-16,  6.4D-12, r^2= 1.3D+00
   Bfn.  Coefficient  Atom+Function         Bfn.  Coefficient  Atom+Function  
  ----- ------------  ---------------      ----- ------------  ---------------
    16      0.457531  2 F  pz                39      0.457531  3 F  pz         
    19      0.308869  2 F  pz                42      0.308869  3 F  pz         

 Vector    9  Occ=2.000000D+00  E=-6.010910D-01  Symmetry=bg
              MO Center=  1.3D-12,  1.4D-14, -1.6D-20, r^2= 1.4D+00
   Bfn.  Coefficient  Atom+Function         Bfn.  Coefficient  Atom+Function  
  ----- ------------  ---------------      ----- ------------  ---------------
    16      0.477433  2 F  pz                39     -0.477433  3 F  pz         
    19      0.327589  2 F  pz                42     -0.327589  3 F  pz         

 Vector   10  Occ=2.000000D+00  E=-5.429050D-01  Symmetry=bu
              MO Center=  3.2D-14,  2.7D-13, -2.6D-22, r^2= 1.4D+00
   Bfn.  Coefficient  Atom+Function         Bfn.  Coefficient  Atom+Function  
  ----- ------------  ---------------      ----- ------------  ---------------
    15      0.475283  2 F  py                38      0.475283  3 F  py         
    18      0.340701  2 F  py                41      0.340701  3 F  py         

 Vector   11  Occ=0.000000D+00  E= 4.141578D-02  Symmetry=ag
              MO Center=  7.5D-13, -3.0D-13, -2.3D-13, r^2= 1.2D+01
   Bfn.  Coefficient  Atom+Function         Bfn.  Coefficient  Atom+Function  
  ----- ------------  ---------------      ----- ------------  ---------------
    13     -0.861730  2 F  s                 36     -0.861730  3 F  s          
     3      0.823016  1 H  s                 58      0.823016  4 H  s          
     2      0.504262  1 H  s                 57      0.504262  4 H  s          

 Vector   12  Occ=0.000000D+00  E= 5.151956D-02  Symmetry=bu
              MO Center=  3.3D-13,  5.0D-13, -3.3D-22, r^2= 1.7D+01
   Bfn.  Coefficient  Atom+Function         Bfn.  Coefficient  Atom+Function  
  ----- ------------  ---------------      ----- ------------  ---------------
     3      1.534491  1 H  s                 58     -1.534491  4 H  s          
    13     -0.656503  2 F  s                 36      0.656503  3 F  s          
     2      0.648015  1 H  s                 57     -0.648015  4 H  s          
    21     -0.404731  2 F  py                44     -0.404731  3 F  py         
    20     -0.273387  2 F  px                43     -0.273387  3 F  px         

 Vector   13  Occ=0.000000D+00  E= 1.911305D-01  Symmetry=bu
              MO Center= -1.8D-11,  5.5D-11,  6.7D-19, r^2= 8.3D+00
   Bfn.  Coefficient  Atom+Function         Bfn.  Coefficient  Atom+Function  
  ----- ------------  ---------------      ----- ------------  ---------------
    13      4.963068  2 F  s                 36     -4.963068  3 F  s          
     2     -2.862196  1 H  s                 57      2.862196  4 H  s          
    20      1.550597  2 F  px                43      1.550597  3 F  px         
    21     -1.307201  2 F  py                44     -1.307201  3 F  py         
     8      0.675960  1 H  py                63      0.675960  4 H  py         

 Vector   14  Occ=0.000000D+00  E= 2.139258D-01  Symmetry=ag
              MO Center=  6.3D-12, -2.3D-11, -1.1D-23, r^2= 9.3D+00
   Bfn.  Coefficient  Atom+Function         Bfn.  Coefficient  Atom+Function  
  ----- ------------  ---------------      ----- ------------  ---------------
    13      3.088334  2 F  s                 36      3.088334  3 F  s          
     2     -2.187675  1 H  s                 57     -2.187675  4 H  s          
    20      1.258915  2 F  px                43     -1.258915  3 F  px         
     7      0.899133  1 H  px                62     -0.899133  4 H  px         
     3     -0.734407  1 H  s                 58     -0.734407  4 H  s          

 Vector   15  Occ=0.000000D+00  E= 2.294799D-01  Symmetry=bu
              MO Center= -3.2D-13,  4.4D-14,  1.9D-22, r^2= 1.1D+01
   Bfn.  Coefficient  Atom+Function         Bfn.  Coefficient  Atom+Function  
  ----- ------------  ---------------      ----- ------------  ---------------
    21     -1.371350  2 F  py                44     -1.371350  3 F  py         
     3      1.340695  1 H  s                 58     -1.340695  4 H  s          
     2      1.299374  1 H  s                 57     -1.299374  4 H  s          
    13     -1.156846  2 F  s                 36      1.156846  3 F  s          
     7     -0.744911  1 H  px                62     -0.744911  4 H  px         

 Vector   16  Occ=0.000000D+00  E= 2.496620D-01  Symmetry=au
              MO Center= -2.9D-14,  1.3D-14,  3.0D-13, r^2= 5.4D+00
   Bfn.  Coefficient  Atom+Function         Bfn.  Coefficient  Atom+Function  
  ----- ------------  ---------------      ----- ------------  ---------------
    22      0.720594  2 F  pz                45      0.720594  3 F  pz         
    19     -0.265498  2 F  pz                42     -0.265498  3 F  pz         

 Vector   17  Occ=0.000000D+00  E= 2.720064D-01  Symmetry=ag
              MO Center= -2.4D-11, -4.0D-12, -5.1D-15, r^2= 7.0D+00
   Bfn.  Coefficient  Atom+Function         Bfn.  Coefficient  Atom+Function  
  ----- ------------  ---------------      ----- ------------  ---------------
     2      2.857851  1 H  s                 57      2.857851  4 H  s          
    13     -2.096362  2 F  s                 20     -2.098440  2 F  px         
    36     -2.096362  3 F  s                 43      2.098440  3 F  px         
    21     -0.982492  2 F  py                44      0.982492  3 F  py         
    12     -0.243988  2 F  s                 35     -0.243988  3 F  s          

 Vector   18  Occ=0.000000D+00  E= 2.967272D-01  Symmetry=bg
              MO Center= -2.5D-13, -2.8D-13,  1.5D-20, r^2= 7.1D+00
   Bfn.  Coefficient  Atom+Function         Bfn.  Coefficient  Atom+Function  
  ----- ------------  ---------------      ----- ------------  ---------------
    22      1.472124  2 F  pz                45     -1.472124  3 F  pz         
     9     -0.228492  1 H  pz                64      0.228492  4 H  pz         
    19     -0.226941  2 F  pz                42      0.226941  3 F  pz         

 Vector   19  Occ=0.000000D+00  E= 2.987773D-01  Symmetry=ag
              MO Center=  9.5D-12, -3.2D-11, -5.6D-15, r^2= 8.0D+00
   Bfn.  Coefficient  Atom+Function         Bfn.  Coefficient  Atom+Function  
  ----- ------------  ---------------      ----- ------------  ---------------
    13      1.409690  2 F  s                 36      1.409690  3 F  s          
    21      1.125509  2 F  py                44     -1.125509  3 F  py         
     2     -0.603445  1 H  s                 57     -0.603445  4 H  s          
    20     -0.481872  2 F  px                43      0.481872  3 F  px         
     3     -0.381294  1 H  s                 58     -0.381294  4 H  s          

 Vector   20  Occ=0.000000D+00  E= 3.511505D-01  Symmetry=bu
              MO Center= -1.6D-11,  2.3D-11,  3.6D-19, r^2= 6.9D+00
   Bfn.  Coefficient  Atom+Function         Bfn.  Coefficient  Atom+Function  
  ----- ------------  ---------------      ----- ------------  ---------------
     2      3.101197  1 H  s                 57     -3.101197  4 H  s          
    21     -1.999277  2 F  py                44     -1.999277  3 F  py         
    20     -1.298618  2 F  px                43     -1.298618  3 F  px         
    13     -1.171671  2 F  s                 36      1.171671  3 F  s          
     3      0.548536  1 H  s                 58     -0.548536  4 H  s          

 Vector   21  Occ=0.000000D+00  E= 3.922884D-01  Symmetry=bg
              MO Center=  1.4D-14,  3.0D-15,  3.9D-20, r^2= 5.5D+00
   Bfn.  Coefficient  Atom+Function         Bfn.  Coefficient  Atom+Function  
  ----- ------------  ---------------      ----- ------------  ---------------
     9      1.197959  1 H  pz                64     -1.197959  4 H  pz         
    22     -1.052149  2 F  pz                45      1.052149  3 F  pz         
    19     -0.176850  2 F  pz                42      0.176850  3 F  pz         

 Vector   22  Occ=0.000000D+00  E= 4.107382D-01  Symmetry=ag
              MO Center= -4.5D-12, -9.1D-12, -1.9D-13, r^2= 4.5D+00
   Bfn.  Coefficient  Atom+Function         Bfn.  Coefficient  Atom+Function  
  ----- ------------  ---------------      ----- ------------  ---------------
    13     -4.301395  2 F  s                 36     -4.301395  3 F  s          
     2      4.239467  1 H  s                 57      4.239467  4 H  s          
    20     -1.874904  2 F  px                43      1.874904  3 F  px         
     7     -0.450692  1 H  px                62      0.450692  4 H  px         
    18     -0.344972  2 F  py                41      0.344972  3 F  py         

 Vector   23  Occ=0.000000D+00  E= 4.383295D-01  Symmetry=bu
              MO Center=  5.3D-15, -1.2D-15,  8.3D-21, r^2= 6.2D+00
   Bfn.  Coefficient  Atom+Function         Bfn.  Coefficient  Atom+Function  
  ----- ------------  ---------------      ----- ------------  ---------------
    13      1.693422  2 F  s                 36     -1.693422  3 F  s          
     8     -0.817302  1 H  py                63     -0.817302  4 H  py         
     2     -0.804977  1 H  s                 57      0.804977  4 H  s          
     7      0.762993  1 H  px                62      0.762993  4 H  px         
    20     -0.247506  2 F  px                43     -0.247506  3 F  px         

 Vector   24  Occ=0.000000D+00  E= 4.542290D-01  Symmetry=au
              MO Center=  1.7D-14,  8.3D-15,  7.9D-15, r^2= 6.1D+00
   Bfn.  Coefficient  Atom+Function         Bfn.  Coefficient  Atom+Function  
  ----- ------------  ---------------      ----- ------------  ---------------
     9      1.293947  1 H  pz                64      1.293947  4 H  pz         
    22     -0.759753  2 F  pz                45     -0.759753  3 F  pz         
    19     -0.176000  2 F  pz                42     -0.176000  3 F  pz         

 Vector   25  Occ=0.000000D+00  E= 5.261622D-01  Symmetry=bu
              MO Center= -3.4D-11, -1.7D-11, -5.8D-19, r^2= 5.6D+00
   Bfn.  Coefficient  Atom+Function         Bfn.  Coefficient  Atom+Function  
  ----- ------------  ---------------      ----- ------------  ---------------
    13     10.066154  2 F  s                 36    -10.066154  3 F  s          
     2     -5.528856  1 H  s                 57      5.528856  4 H  s          
    21     -2.135717  2 F  py                44     -2.135717  3 F  py         
    20      1.902332  2 F  px                43      1.902332  3 F  px         
     8      1.174672  1 H  py                63      1.174672  4 H  py         


 center of mass
 --------------
 x =   0.00000000 y =   0.00000000 z =   0.00000000

 moments of inertia (a.u.)
 ------------------
         127.080905622264           0.000000000000           0.000000000000
           0.000000000000           4.613745876101           0.000000000000
           0.000000000000           0.000000000000         131.694651498365

  Mulliken analysis of the total density
  --------------------------------------

    Atom       Charge   Shell Charges
 -----------   ------   -------------------------------------------------------
    1 H    1     0.67   0.68 -0.12 -0.00  0.10  0.01
    2 F    9     9.33   2.00  0.91  0.94  0.10  3.33  1.90  0.16  0.01 -0.01
    3 F    9     9.33   2.00  0.91  0.94  0.10  3.33  1.90  0.16  0.01 -0.01
    4 H    1     0.67   0.68 -0.12 -0.00  0.10  0.01

       Multipole analysis of the density wrt the origin
       ------------------------------------------------

     L   x y z        total         open         nuclear
     -   - - -        -----         ----         -------
     0   0 0 0     -0.000000      0.000000     20.000000

     1   1 0 0     -0.000000      0.000000      0.000000
     1   0 1 0     -0.000000      0.000000     -0.000000
     1   0 0 1      0.000000      0.000000      0.000000

     2   2 0 0     -5.906712      0.000000      4.331925
     2   1 1 0      3.829366      0.000000      3.813492
     2   1 0 1      0.000000      0.000000      0.000000
     2   0 2 0     -5.984605      0.000000     66.977058
     2   0 1 1      0.000000      0.000000      0.000000
     2   0 0 2     -8.520230      0.000000      0.000000


 Parallel integral file used      16 records with       0 large values



                   Four-Index Transformation
                   -------------------------
          Number of basis functions:             64
          Number of shells:                      28
          Number of occupied orbitals:           10
          Number of occ. correlated orbitals:    10
          Block length:                          16
          Superscript MO index range:      1 -   10
          Subscript MO index range:        1 -   64
          MO coefficients read from:  ./input_dimer.movecs     
          Number of operator matrices in core:  110
          Half-transformed integrals produced

     Pass:    1     Index range:    1  -   10     Time:      0.42
 ------------------------------------------
 MP2 Energy (coupled cluster initial guess)
 ------------------------------------------
 Reference energy:           -200.008250895582762
 MP2 Corr. energy:             -0.454189146748450
 Total MP2 energy:           -200.462440042331224


 ****************************************************************************
              the segmented parallel ccsd program:    1 nodes
 ****************************************************************************




 level of theory    ccsd(t)
 number of core         0
 number of occupied    10
 number of virtual     54
 number of deleted      0
 total functions       64
 number of shells      28
 basis label          566



   ***** ccsd parameters *****
   iprt   =     0
   convi  =  0.100E-05
   maxit  =    20
   mxvec  =     5
 memory             52422068
  Using  1 OpenMP thread(s) in CCSD
  avail0,avail1,avail0-avail1                  4306                 4306                    0
  avail0,avail1,avail0-avail1                  4306                 4306                    0
  avail0,avail1,avail0-avail1                  4306                 4308                   -2
  avail0,avail1,avail0-avail1                  4306                 4311                   -5
  Restarting from old vector in ./input_dimer.t2


-------------------------------------------------------------------------
 iter     correlation     delta       rms       T2     Non-T2      Main
             energy      energy      error      ampl     ampl      Block
                                                time     time      time
-------------------------------------------------------------------------
   1     -0.4615076058 -4.615D-01  1.391D-01     1.13     0.00     1.06
   2     -0.4569578005  4.550D-03  3.973D-02     0.31     0.00     0.23
   3     -0.4604541819 -3.496D-03  6.305D-03     0.31     0.00     0.23
   4     -0.4605699081 -1.157D-04  3.111D-03     0.31     0.00     0.23
   5     -0.4608215202 -2.516D-04  4.122D-04     0.31     0.00     0.23
   6     -0.4608538268 -3.231D-05  1.806D-03     0.31     0.00     0.24
   7     -0.4608511458  2.681D-06  4.055D-04     0.31     0.00     0.23
   8     -0.4608489018  2.244D-06  9.875D-05     0.36     0.00     0.29
   9     -0.4608478820  1.020D-06  2.575D-05     0.31     0.00     0.23
  10     -0.4608477156  1.664D-07  8.760D-06     0.30     0.00     0.23
  11     -0.4608477423 -2.675D-08  2.365D-06     0.31     0.00     0.23
  12     -0.4608477178  2.457D-08  1.676D-06     0.38     0.00     0.25
  13     -0.4608477522 -3.441D-08  1.284D-06     0.33     0.00     0.25
  14     -0.4608477458  6.336D-09  5.455D-07     0.31     0.00     0.23
                  *************converged*************
-------------------------------------------------------------------------

 -----------
 CCSD Energy
 -----------
 Reference energy:            -200.008250895582762
 CCSD corr. energy:             -0.460847745845120
 Total CCSD energy:           -200.469098641427877


 --------------------------------
 Spin Component Scaled (SCS) CCSD
 --------------------------------
 Same spin contribution:                 -0.109884702639215
 Same spin scaling factor:                1.130000000000000
 Opposite spin contribution:             -0.350963043205904
 Opposite spin scaling fact.:             1.270000000000000
 SCS-CCSD correlation energy:            -0.569892778853812
 Total SCS-CCSD energy:                -200.578143674436575
 memory             52422068


*********triples calculation*********

nkpass=    1; nvpass=    1; memdrv=         163890; memtrn=         855598; memavail=       52421516
 memory available/node                       52421516
 total number of virtual orbitals        54
 number of virtuals per integral pass    54
 number of integral evaluations           1
 number of occupied per triples pass     10
 number of triples passes                 1

 commencing integral evaluation        1 at           5.96
  symmetry use  T
task         5 out of       406 done   1%  at       0.0 secs
task        21 out of       406 done   5%  at       0.1 secs
task        41 out of       406 done  10%  at       0.1 secs
task        62 out of       406 done  15%  at       0.2 secs
task        82 out of       406 done  20%  at       0.2 secs
task       102 out of       406 done  25%  at       0.2 secs
task       122 out of       406 done  30%  at       0.2 secs
task       153 out of       406 done  37%  at       0.3 secs
task       170 out of       406 done  41%  at       0.3 secs
task       183 out of       406 done  45%  at       0.3 secs
task       203 out of       406 done  50%  at       0.3 secs
task       224 out of       406 done  55%  at       0.4 secs
task       245 out of       406 done  60%  at       0.4 secs
task       264 out of       406 done  65%  at       0.4 secs
task       285 out of       406 done  70%  at       0.4 secs
task       317 out of       406 done  78%  at       0.4 secs
task       342 out of       406 done  84%  at       0.4 secs
task       346 out of       406 done  85%  at       0.4 secs
task       366 out of       406 done  90%  at       0.5 secs
task       386 out of       406 done  95%  at       0.5 secs
task       406 out of       406 done 100%  at       0.5 secs
 commencing triples evaluation - blocking       1
 ccsd(t): done        1 out of       54 progress:    1.9%
 ccsd(t): done        2 out of       54 progress:    3.7%
 ccsd(t): done        3 out of       54 progress:    5.6%
 ccsd(t): done        4 out of       54 progress:    7.4%
 ccsd(t): done        5 out of       54 progress:    9.3%
 ccsd(t): done        6 out of       54 progress:   11.1%
 ccsd(t): done        7 out of       54 progress:   13.0%
 ccsd(t): done        8 out of       54 progress:   14.8%
 ccsd(t): done        9 out of       54 progress:   16.7%
 ccsd(t): done       10 out of       54 progress:   18.5%
 ccsd(t): done       11 out of       54 progress:   20.4%
 ccsd(t): done       12 out of       54 progress:   22.2%
 ccsd(t): done       13 out of       54 progress:   24.1%
 ccsd(t): done       14 out of       54 progress:   25.9%
 ccsd(t): done       15 out of       54 progress:   27.8%
 ccsd(t): done       16 out of       54 progress:   29.6%
 ccsd(t): done       17 out of       54 progress:   31.5%
 ccsd(t): done       18 out of       54 progress:   33.3%
 ccsd(t): done       19 out of       54 progress:   35.2%
 ccsd(t): done       20 out of       54 progress:   37.0%
 ccsd(t): done       21 out of       54 progress:   38.9%
 ccsd(t): done       22 out of       54 progress:   40.7%
 ccsd(t): done       23 out of       54 progress:   42.6%
 ccsd(t): done       24 out of       54 progress:   44.4%
 ccsd(t): done       25 out of       54 progress:   46.3%
 ccsd(t): done       26 out of       54 progress:   48.1%
 ccsd(t): done       27 out of       54 progress:   50.0%
 ccsd(t): done       28 out of       54 progress:   51.9%
 ccsd(t): done       29 out of       54 progress:   53.7%
 ccsd(t): done       30 out of       54 progress:   55.6%
 ccsd(t): done       31 out of       54 progress:   57.4%
 ccsd(t): done       32 out of       54 progress:   59.3%
 ccsd(t): done       33 out of       54 progress:   61.1%
 ccsd(t): done       34 out of       54 progress:   63.0%
 ccsd(t): done       35 out of       54 progress:   64.8%
 ccsd(t): done       36 out of       54 progress:   66.7%
 ccsd(t): done       37 out of       54 progress:   68.5%
 ccsd(t): done       38 out of       54 progress:   70.4%
 ccsd(t): done       39 out of       54 progress:   72.2%
 ccsd(t): done       40 out of       54 progress:   74.1%
 ccsd(t): done       41 out of       54 progress:   75.9%
 ccsd(t): done       42 out of       54 progress:   77.8%
 ccsd(t): done       43 out of       54 progress:   79.6%
 ccsd(t): done       44 out of       54 progress:   81.5%
 ccsd(t): done       45 out of       54 progress:   83.3%
 ccsd(t): done       46 out of       54 progress:   85.2%
 ccsd(t): done       47 out of       54 progress:   87.0%
 ccsd(t): done       48 out of       54 progress:   88.9%
 ccsd(t): done       49 out of       54 progress:   90.7%
 ccsd(t): done       50 out of       54 progress:   92.6%
 ccsd(t): done       51 out of       54 progress:   94.4%
 ccsd(t): done       52 out of       54 progress:   96.3%
 ccsd(t): done       53 out of       54 progress:   98.1%
 ccsd(t): done       54 out of       54 progress:  100.0%
 Time for integral evaluation pass     1        0.52
 Time for triples evaluation pass      1        3.28

 pseudo-e(mp4)  -0.10399376669379E-01
 pseudo-e(mp5)   0.13362635070347E-02
        e(t)    -0.90631131623440E-02

 --------------
 CCSD(T) Energy
 --------------
 Reference energy:                    -200.008250895582762

 CCSD corr. energy:                     -0.460847745845120
 T(CCSD) corr. energy:                  -0.010399376669379
 Total CCSD+T(CCSD) energy:           -200.479498018097274

 CCSD corr. energy:                     -0.460847745845120
 (T) corr. energy:                      -0.009063113162344
 Total CCSD(T) energy:                -200.478161754590218

 routine      calls  cpu(0)   cpu-min  cpu-ave  cpu-max   i/o 
 aoccsd          1     0.00     0.00     0.00     0.00    0.00
 iterdrv         1     0.04     0.04     0.04     0.04    0.00
 pampt          14     0.05     0.05     0.05     0.05    0.00
 t2pm           14     0.07     0.07     0.07     0.07    0.00
 sxy            14     0.04     0.04     0.04     0.04    0.00
 ints       164834     0.70     0.70     0.70     0.70    0.00
 f_write       812     0.10     0.10     0.10     0.10    0.00
 t2eri        5684     2.74     2.74     2.74     2.74    0.00
 idx2         5684     0.41     0.41     0.41     0.41    0.00
 idx34          14     0.08     0.08     0.08     0.08    0.00
 ht2pm          14     0.12     0.12     0.12     0.12    0.00
 itm            14     0.86     0.86     0.86     0.86    0.00
 pdiis          14     0.01     0.01     0.01     0.01    0.00
 r_read       5278     0.09     0.09     0.09     0.09    0.00
 triples         1     0.00     0.00     0.00     0.00    0.00
 rdtrpo          1     0.00     0.00     0.00     0.00    0.00
 trpmos          1     0.52     0.52     0.52     0.52    0.00
 trpdrv          1     0.26     0.26     0.26     0.26    0.00
 dovvv       59400     2.00     2.00     2.00     2.00    0.00
 doooo       59400     0.42     0.42     0.42     0.42    0.00
 tengy       54000     0.57     0.57     0.57     0.57    0.00
 Total                 9.08     9.08     9.08     9.08    0.00

 Task  times  cpu:        9.8s     wall:        9.8s
 Summary of allocated global arrays
-----------------------------------
  No active global arrays


MA_summarize_allocated_blocks: starting scan ...
MA_summarize_allocated_blocks: scan completed: 0 heap blocks, 0 stack blocks
MA usage statistics:

	allocation statistics:
					      heap	     stack
					      ----	     -----
	current number of blocks	         0	         0
	maximum number of blocks	        18	        42
	current total bytes		         0	         0
	maximum total bytes		  13126728	 378049640
	maximum total K-bytes		     13127	    378050
	maximum total M-bytes		        14	       379


                                NWChem Input Module
                                -------------------




                                     CITATION
                                     --------
                Please cite the following reference when publishing
                           results obtained with NWChem:

          E. Apra, E. J. Bylaska, W. A. de Jong, N. Govind, K. Kowalski,
       T. P. Straatsma, M. Valiev, H. J. J. van Dam, Y. Alexeev, J. Anchell,
       V. Anisimov, F. W. Aquino, R. Atta-Fynn, J. Autschbach, N. P. Bauman,
     J. C. Becca, D. E. Bernholdt, K. Bhaskaran-Nair, S. Bogatko, P. Borowski,
         J. Boschen, J. Brabec, A. Bruner, E. Cauet, Y. Chen, G. N. Chuev,
      C. J. Cramer, J. Daily, M. J. O. Deegan, T. H. Dunning Jr., M. Dupuis,
   K. G. Dyall, G. I. Fann, S. A. Fischer, A. Fonari, H. Fruchtl, L. Gagliardi,
      J. Garza, N. Gawande, S. Ghosh, K. Glaesemann, A. W. Gotz, J. Hammond,
       V. Helms, E. D. Hermes, K. Hirao, S. Hirata, M. Jacquelin, L. Jensen,
   B. G. Johnson, H. Jonsson, R. A. Kendall, M. Klemm, R. Kobayashi, V. Konkov,
      S. Krishnamoorthy, M. Krishnan, Z. Lin, R. D. Lins, R. J. Littlefield,
      A. J. Logsdail, K. Lopata, W. Ma, A. V. Marenich, J. Martin del Campo,
   D. Mejia-Rodriguez, J. E. Moore, J. M. Mullin, T. Nakajima, D. R. Nascimento,
    J. A. Nichols, P. J. Nichols, J. Nieplocha, A. Otero-de-la-Roza, B. Palmer,
    A. Panyala, T. Pirojsirikul, B. Peng, R. Peverati, J. Pittner, L. Pollack,
   R. M. Richard, P. Sadayappan, G. C. Schatz, W. A. Shelton, D. W. Silverstein,
   D. M. A. Smith, T. A. Soares, D. Song, M. Swart, H. L. Taylor, G. S. Thomas,
            V. Tipparaju, D. G. Truhlar, K. Tsemekhman, T. Van Voorhis,
      A. Vazquez-Mayagoitia, P. Verma, O. Villa, A. Vishnu, K. D. Vogiatzis,
        D. Wang, J. H. Weare, M. J. Williamson, T. L. Windus, K. Wolinski,
        A. T. Wong, Q. Wu, C. Yang, Q. Yu, M. Zacharias, Z. Zhang, Y. Zhao,
                                and R. J. Harrison
                        "NWChem: Past, present, and future
                         J. Chem. Phys. 152, 184102 (2020)
                               doi:10.1063/5.0004997

                                      AUTHORS
                                      -------
  E. Apra, E. J. Bylaska, N. Govind, K. Kowalski, M. Valiev, D. Mejia-Rodriguez,
       A. Kunitsa, N. P. Bauman, A. Panyala, W. A. de Jong, T. P. Straatsma,
   H. J. J. van Dam, D. Wang, T. L. Windus, J. Hammond, J. Autschbach, A. Woods,
    K. Bhaskaran-Nair, J. Brabec, K. Lopata, S. A. Fischer, S. Krishnamoorthy,
     M. Jacquelin, W. Ma, M. Klemm, O. Villa, Y. Chen, V. Anisimov, F. Aquino,
     S. Hirata, M. T. Hackler, E. Hermes, L. Jensen, J. E. Moore, J. C. Becca,
      V. Konjkov, T. Risthaus, M. Malagoli, A. Marenich, A. Otero-de-la-Roza,
        J. Mullin, P. Nichols, R. Peverati, J. Pittner, Y. Zhao, P.-D. Fan,
        A. Fonari, M. J. Williamson, R. J. Harrison, J. R. Rehr, M. Dupuis,
     D. Silverstein, D. M. A. Smith, J. Nieplocha, V. Tipparaju, M. Krishnan,
     B. E. Van Kuiken, A. Vazquez-Mayagoitia, M. Swart, Q. Wu, T. Van Voorhis,
     A. A. Auer, M. Nooijen, L. D. Crosby, E. Brown, G. Cisneros, G. I. Fann,
   H. Fruchtl, J. Garza, K. Hirao, R. A. Kendall, J. A. Nichols, K. Tsemekhman,
    K. Wolinski, J. Anchell, D. E. Bernholdt, P. Borowski, T. Clark, D. Clerc,
   H. Dachsel, M. J. O. Deegan, K. Dyall, D. Elwood, E. Glendening, M. Gutowski,
   A. C. Hess, J. Jaffe, B. G. Johnson, J. Ju, R. Kobayashi, R. Kutteh, Z. Lin,
   R. Littlefield, X. Long, B. Meng, T. Nakajima, S. Niu, L. Pollack, M. Rosing,
   K. Glaesemann, G. Sandrone, M. Stave, H. Taylor, G. Thomas, J. H. van Lenthe,
                               A. T. Wong, Z. Zhang.

 Total times  cpu:        9.8s     wall:        9.8s
