 argument  1 = H2O_H2O_distance_1.5_0.25_1.5/input_dimer.txt
                                         
                                         


             Northwest Computational Chemistry Package (NWChem) 7.2.3
             --------------------------------------------------------


                    Environmental Molecular Sciences Laboratory
                       Pacific Northwest National Laboratory
                                Richland, WA 99352

                              Copyright (c) 1994-2022
                       Pacific Northwest National Laboratory
                            Battelle Memorial Institute

             NWChem is an open-source computational chemistry package
                        distributed under the terms of the
                      Educational Community License (ECL) 2.0
             A copy of the license is included with this distribution
                              in the LICENSE.TXT file

                                  ACKNOWLEDGMENT
                                  --------------

            This software and its documentation were developed at the
            EMSL at Pacific Northwest National Laboratory, a multiprogram
            national laboratory, operated for the U.S. Department of Energy
            by Battelle under Contract Number DE-AC05-76RL01830. Support
            for this work was provided by the Department of Energy Office
            of Biological and Environmental Research, Office of Basic
            Energy Sciences, and the Office of Advanced Scientific Computing.


           Job information
           ---------------

    hostname        = ibrahims-air-8.misc.iastate.edu
    program         = nwchem
    date            = Mon Jun  9 17:22:46 2025

    compiled        = Thu_Dec_26_16:03:44_2024
    source          = /private/tmp/nwchem-20241226-24280-orrtsi/nwchem-7.2.3
    nwchem branch   = 7.2.3
    nwchem revision = d690e065
    ga revision     = 5.8.0
    use scalapack   = T
    input           = H2O_H2O_distance_1.5_0.25_1.5/input_dimer.txt
    prefix          = input_dimer.
    data base       = ./input_dimer.db
    status          = restart
    nproc           =        1
    time left       =     -1s



           Memory information
           ------------------

    heap     =   26214396 doubles =    200.0 Mbytes
    stack    =   26214401 doubles =    200.0 Mbytes
    global   =   52428800 doubles =    400.0 Mbytes (distinct from heap & stack)
    total    =  104857597 doubles =    800.0 Mbytes
    verify   = yes
    hardfail = no 


           Directory information
           ---------------------

  0 permanent = .
  0 scratch   = .


           Previous task information
           -------------------------

    Theory    = ccsd(t)                         
    Operation = energy                        
    Status    = ok                            
    Qmmm      = F
    Ignore    = F


           Geometries in the database
           --------------------------

       Name                              Natoms  Last Modified
       --------------------------------  ------  ------------------------
    1  geometry                               6  Mon Jun  9 17:21:55 2025  

  The geometry named "geometry" is the default for restart



           Basis sets in the database
           --------------------------

       Name                              Natoms  Last Modified
        --------------------------------  ------  ------------------------
    1  ao basis                               2  Mon Jun  9 17:21:55 2025  

  The basis set named "ao basis" is the default AO basis for restart




                                NWChem Input Module
                                -------------------



 Scaling coordinates for geometry "geometry" by  1.889725989
 (inverse scale =  0.529177249)

 C1  symmetry detected

          ------
          auto-z
          ------
  autoz: The atoms group into disjoint clusters
 cluster   1:    1    2    3
 cluster   2:    4    5    6
 Connecting clusters   1   2 via atoms    3    4 r = 1.82
  autoz: regenerating connections with new bonds
  no constraints, skipping    0.0000000000000000     
  no constraints, skipping    0.0000000000000000     


                             Geometry "geometry" -> ""
                             -------------------------

 Output coordinates in angstroms (scale by  1.889725989 to convert to a.u.)

  No.       Tag          Charge          X              Y              Z
 ---- ---------------- ---------- -------------- -------------- --------------
    1 O                    8.0000     0.01933073    -1.15254248    -0.06572880
    2 H                    1.0000    -0.80777309    -0.82556676     0.31133280
    3 H                    1.0000     0.70061412    -0.63270821     0.38011923
    4 O                    8.0000     0.00983336     0.98318048    -0.09885312
    5 H                    1.0000    -0.81727046     1.31015621     0.27820848
    6 H                    1.0000     0.69111675     1.50301476     0.34699491

      Atomic Mass 
      ----------- 

      O                 15.994910
      H                  1.007825


 Effective nuclear repulsion energy (a.u.)      42.5359696576

            Nuclear Dipole moment (a.u.) 
            ----------------------------
        X                 Y               Z
 ---------------- ---------------- ----------------
    -0.0000000000     0.0000000000     0.0000000000



                                Z-matrix (autoz)
                                -------- 

 Units are Angstrom for bonds and degrees for angles

      Type          Name      I     J     K     L     M      Value
      ----------- --------  ----- ----- ----- ----- ----- ----------
    1 Stretch                  1     2                       0.96602
    2 Stretch                  1     3                       0.96600
    3 Stretch                  3     4                       1.82145
    4 Stretch                  4     5                       0.96602
    5 Stretch                  4     6                       0.96600
    6 Bend                     1     3     4                95.08092
    7 Bend                     2     1     3               103.97798
    8 Bend                     3     4     5               121.48996
    9 Bend                     3     4     6                95.08092
   10 Bend                     5     4     6               103.97798
   11 Torsion                  1     3     4     5          70.19341
   12 Torsion                  1     3     4     6        -180.00000
   13 Torsion                  2     1     3     4         -55.76808


            XYZ format geometry
            -------------------
     6
 geometry
 O                     0.01933073    -1.15254248    -0.06572880
 H                    -0.80777309    -0.82556676     0.31133280
 H                     0.70061412    -0.63270821     0.38011923
 O                     0.00983336     0.98318048    -0.09885312
 H                    -0.81727046     1.31015621     0.27820848
 H                     0.69111675     1.50301476     0.34699491

 ==============================================================================
                                internuclear distances
 ------------------------------------------------------------------------------
       center one      |      center two      | atomic units |  angstroms
 ------------------------------------------------------------------------------
    2 H                |   1 O                |     1.82551  |     0.96602
    3 H                |   1 O                |     1.82547  |     0.96600
    5 H                |   4 O                |     1.82551  |     0.96602
    6 H                |   4 O                |     1.82547  |     0.96600
 ------------------------------------------------------------------------------
                         number of included internuclear distances:          4
 ==============================================================================



 ==============================================================================
                                 internuclear angles
 ------------------------------------------------------------------------------
        center 1       |       center 2       |       center 3       |  degrees
 ------------------------------------------------------------------------------
    2 H                |   1 O                |   3 H                |   103.98
    5 H                |   4 O                |   6 H                |   103.98
 ------------------------------------------------------------------------------
                            number of included internuclear angles:          2
 ==============================================================================



  library name resolved from: .nwchemrc
  library file name is: </opt/homebrew/Cellar/nwchem/7.2.3_1/share/nwchem/libraries/>
  
                      Basis "ao basis" -> "" (spherical)
                      -----
  O (Oxygen)
  ----------
            Exponent  Coefficients 
       -------------- ---------------------------------------------------------
  1 S  1.17200000E+04  0.000710
  1 S  1.75900000E+03  0.005470
  1 S  4.00800000E+02  0.027837
  1 S  1.13700000E+02  0.104800
  1 S  3.70300000E+01  0.283062
  1 S  1.32700000E+01  0.448719
  1 S  5.02500000E+00  0.270952
  1 S  1.01300000E+00  0.015458

  2 S  1.17200000E+04 -0.000160
  2 S  1.75900000E+03 -0.001263
  2 S  4.00800000E+02 -0.006267
  2 S  1.13700000E+02 -0.025716
  2 S  3.70300000E+01 -0.070924
  2 S  1.32700000E+01 -0.165411
  2 S  5.02500000E+00 -0.116955
  2 S  1.01300000E+00  0.557368

  3 S  3.02300000E-01  1.000000

  4 S  7.89600000E-02  1.000000

  5 P  1.77000000E+01  0.043018
  5 P  3.85400000E+00  0.228913
  5 P  1.04600000E+00  0.508728

  6 P  2.75300000E-01  1.000000

  7 P  6.85600000E-02  1.000000

  8 D  1.18500000E+00  1.000000

  9 D  3.32000000E-01  1.000000

  H (Hydrogen)
  ------------
            Exponent  Coefficients 
       -------------- ---------------------------------------------------------
  1 S  1.30100000E+01  0.019685
  1 S  1.96200000E+00  0.137977
  1 S  4.44600000E-01  0.478148

  2 S  1.22000000E-01  1.000000

  3 S  2.97400000E-02  1.000000

  4 P  7.27000000E-01  1.000000

  5 P  1.41000000E-01  1.000000



 Summary of "ao basis" -> "" (spherical)
 ------------------------------------------------------------------------------
       Tag                 Description            Shells   Functions and Types
 ---------------- ------------------------------  ------  ---------------------
 O                        aug-cc-pvdz                9       23   4s3p2d
 H                        aug-cc-pvdz                5        9   3s2p


                                 NWChem SCF Module
                                 -----------------



  ao basis        = "ao basis"
  functions       =    82
  atoms           =     6
  closed shells   =    10
  open shells     =     0
  charge          =   0.00
  wavefunction    = RHF 
  input vectors   = ./input_dimer.movecs
  output vectors  = ./input_dimer.movecs
  use symmetry    = F
  symmetry adapt  = F


 Summary of "ao basis" -> "ao basis" (spherical)
 ------------------------------------------------------------------------------
       Tag                 Description            Shells   Functions and Types
 ---------------- ------------------------------  ------  ---------------------
 O                        aug-cc-pvdz                9       23   4s3p2d
 H                        aug-cc-pvdz                5        9   3s2p



 Forming initial guess at       0.0s


 Loading old vectors from job with title :




 Starting SCF solution at       0.0s



 ----------------------------------------------
         Quadratically convergent ROHF

 Convergence threshold     :          1.000E-06
 Maximum no. of iterations :           30
 Final Fock-matrix accuracy:          1.000E-08
 ----------------------------------------------


 Integral file          = ./input_dimer.aoints.0
 Record size in doubles =  65536        No. of integs per rec  =  43688
 Max. records in memory =    184        Max. records in file   =   4439
 No. of bits per label  =      8        No. of bits per value  =     64


 #quartets = 2.747D+05 #integrals = 5.947D+06 #direct =  0.0% #cached =100.0%


              iter       energy          gnorm     gmax       time
             ----- ------------------- --------- --------- --------
                 1     -148.2837172656  4.61D+00  7.56D-01      0.4
                 2     -150.8283659975  3.08D+00  1.15D+00      0.4
                 3     -151.7232522968  1.96D+00  3.05D-01      0.5
                 4     -151.9939404431  8.26D-01  1.55D-01      0.6
                 5     -152.0282156847  2.81D-01  7.17D-02      0.6
                 6     -152.0335789664  1.74D-02  2.80D-03      0.7
                 7     -152.0336248328  1.59D-04  2.57D-05      0.9
                 8     -152.0336248357  3.57D-08  5.20D-09      1.3


       Final RHF  results 
       ------------------ 

         Total SCF energy =   -152.033624835744
      One-electron energy =   -294.422624458735
      Two-electron energy =     99.853029965382
 Nuclear repulsion energy =     42.535969657608

        Time for solution =      1.2s


             Final eigenvalues
             -----------------

              1      
    1  -20.5863
    2  -20.5289
    3   -1.3832
    4   -1.3079
    5   -0.7404
    6   -0.6740
    7   -0.6250
    8   -0.5720
    9   -0.5013
   10   -0.4392
   11    0.0257
   12    0.0489
   13    0.0648
   14    0.0836
   15    0.1528
   16    0.1938
   17    0.2094
   18    0.2161
   19    0.2224
   20    0.2614

                       ROHF Final Molecular Orbital Analysis
                       -------------------------------------

 Vector    2  Occ=2.000000D+00  E=-2.052893D+01
              MO Center=  1.9D-02, -1.2D+00, -6.6D-02, r^2= 1.5D-02
   Bfn.  Coefficient  Atom+Function         Bfn.  Coefficient  Atom+Function  
  ----- ------------  ---------------      ----- ------------  ---------------
     1      1.001554  1 O  s          

 Vector    3  Occ=2.000000D+00  E=-1.383239D+00
              MO Center= -7.1D-03,  8.4D-01,  2.5D-02, r^2= 9.3D-01
   Bfn.  Coefficient  Atom+Function         Bfn.  Coefficient  Atom+Function  
  ----- ------------  ---------------      ----- ------------  ---------------
    43      0.418426  4 O  s                 44      0.359378  4 O  s          
    65      0.189021  5 H  s                 74      0.187907  6 H  s          

 Vector    4  Occ=2.000000D+00  E=-1.307894D+00
              MO Center= -4.2D-03, -7.7D-01,  4.7D-02, r^2= 1.0D+00
   Bfn.  Coefficient  Atom+Function         Bfn.  Coefficient  Atom+Function  
  ----- ------------  ---------------      ----- ------------  ---------------
     2      0.419920  1 O  s                  3      0.372333  1 O  s          
    24      0.193235  2 H  s                 33      0.189385  3 H  s          
    43     -0.157091  4 O  s          

 Vector    5  Occ=2.000000D+00  E=-7.403534D-01
              MO Center= -2.2D-02,  9.1D-01,  5.7D-02, r^2= 1.2D+00
   Bfn.  Coefficient  Atom+Function         Bfn.  Coefficient  Atom+Function  
  ----- ------------  ---------------      ----- ------------  ---------------
    46      0.464102  4 O  px                65     -0.330493  5 H  s          
    74      0.317142  6 H  s                 49      0.192447  4 O  px         

 Vector    6  Occ=2.000000D+00  E=-6.740484D-01
              MO Center=  1.4D-02, -6.7D-01,  7.3D-02, r^2= 1.4D+00
   Bfn.  Coefficient  Atom+Function         Bfn.  Coefficient  Atom+Function  
  ----- ------------  ---------------      ----- ------------  ---------------
     5      0.437618  1 O  px                33      0.328986  3 H  s          
    24     -0.304954  2 H  s                  8      0.175994  1 O  px         
    74     -0.165781  6 H  s                 47     -0.152107  4 O  py         

 Vector    7  Occ=2.000000D+00  E=-6.250429D-01
              MO Center= -5.8D-03,  3.1D-01, -5.5D-02, r^2= 1.7D+00
   Bfn.  Coefficient  Atom+Function         Bfn.  Coefficient  Atom+Function  
  ----- ------------  ---------------      ----- ------------  ---------------
    47      0.404815  4 O  py                50      0.252555  4 O  py         
    44     -0.231004  4 O  s                  6     -0.228173  1 O  py         
    65      0.204161  5 H  s                 48      0.199326  4 O  pz         
     5      0.165746  1 O  px                 3      0.160427  1 O  s          
    24     -0.156968  2 H  s          

 Vector    8  Occ=2.000000D+00  E=-5.719826D-01
              MO Center=  1.1D-02,  1.6D-01, -1.2D-01, r^2= 1.9D+00
   Bfn.  Coefficient  Atom+Function         Bfn.  Coefficient  Atom+Function  
  ----- ------------  ---------------      ----- ------------  ---------------
    48      0.444837  4 O  pz                51      0.302754  4 O  pz         
     7      0.252812  1 O  pz                 6      0.210466  1 O  py         
     3     -0.200220  1 O  s                 44     -0.179102  4 O  s          
    10      0.151066  1 O  pz         

 Vector    9  Occ=2.000000D+00  E=-5.013043D-01
              MO Center=  1.3D-02, -2.2D-01, -1.1D-01, r^2= 1.8D+00
   Bfn.  Coefficient  Atom+Function         Bfn.  Coefficient  Atom+Function  
  ----- ------------  ---------------      ----- ------------  ---------------
     7      0.439282  1 O  pz                48     -0.322533  4 O  pz         
    10      0.289507  1 O  pz                47      0.267729  4 O  py         
    51     -0.234040  4 O  pz                50      0.209483  4 O  py         
     3     -0.172682  1 O  s                 33      0.154421  3 H  s          

 Vector   10  Occ=2.000000D+00  E=-4.392170D-01
              MO Center=  1.7D-02, -7.2D-01, -1.2D-02, r^2= 1.5D+00
   Bfn.  Coefficient  Atom+Function         Bfn.  Coefficient  Atom+Function  
  ----- ------------  ---------------      ----- ------------  ---------------
     6      0.498508  1 O  py                 9      0.358516  1 O  py         
    47      0.292053  4 O  py                 7     -0.288024  1 O  pz         
    50      0.226563  4 O  py                10     -0.225247  1 O  pz         
    44     -0.151624  4 O  s          

 Vector   11  Occ=0.000000D+00  E= 2.569778D-02
              MO Center= -1.9D-01,  1.7D+00,  6.6D-01, r^2= 1.1D+01
   Bfn.  Coefficient  Atom+Function         Bfn.  Coefficient  Atom+Function  
  ----- ------------  ---------------      ----- ------------  ---------------
    45      1.104539  4 O  s                 76     -0.946802  6 H  s          
    67     -0.801153  5 H  s                  4      0.762425  1 O  s          
    75     -0.391553  6 H  s                 53      0.389545  4 O  py         
    66     -0.323924  5 H  s                 25     -0.233762  2 H  s          
    12      0.217637  1 O  py                34     -0.216758  3 H  s          

 Vector   12  Occ=0.000000D+00  E= 4.891087D-02
              MO Center= -7.7D-02,  1.2D+00,  6.2D-01, r^2= 1.6D+01
   Bfn.  Coefficient  Atom+Function         Bfn.  Coefficient  Atom+Function  
  ----- ------------  ---------------      ----- ------------  ---------------
    76     -2.435208  6 H  s                 67      2.351094  5 H  s          
    26      0.849222  2 H  s                 35     -0.778838  3 H  s          
    52      0.778120  4 O  px                75     -0.486159  6 H  s          
    66      0.446979  5 H  s                 34     -0.341264  3 H  s          
    25      0.338865  2 H  s                 11      0.311990  1 O  px         

 Vector   13  Occ=0.000000D+00  E= 6.478870D-02
              MO Center= -1.3D-01, -7.5D-01,  6.5D-01, r^2= 1.6D+01
   Bfn.  Coefficient  Atom+Function         Bfn.  Coefficient  Atom+Function  
  ----- ------------  ---------------      ----- ------------  ---------------
    26      1.502279  2 H  s                 67     -1.465535  5 H  s          
    35      1.447613  3 H  s                  4     -1.344149  1 O  s          
    76     -0.670240  6 H  s                 53      0.518709  4 O  py         
    34      0.422286  3 H  s                 25      0.405193  2 H  s          
    45      0.397577  4 O  s                 66     -0.269800  5 H  s          

 Vector   14  Occ=0.000000D+00  E= 8.364860D-02
              MO Center=  4.5D-02, -2.3D-01,  5.9D-01, r^2= 2.1D+01
   Bfn.  Coefficient  Atom+Function         Bfn.  Coefficient  Atom+Function  
  ----- ------------  ---------------      ----- ------------  ---------------
    35     -4.773358  3 H  s                 26      4.626908  2 H  s          
    76      3.699237  6 H  s                 67     -3.597986  5 H  s          
    11      0.995061  1 O  px                34     -0.663679  3 H  s          
    25      0.619407  2 H  s                 52     -0.423751  4 O  px         
    66     -0.257611  5 H  s                 75      0.186299  6 H  s          

 Vector   15  Occ=0.000000D+00  E= 1.528226D-01
              MO Center= -1.3D-02,  8.3D-01, -4.8D-02, r^2= 9.5D+00
   Bfn.  Coefficient  Atom+Function         Bfn.  Coefficient  Atom+Function  
  ----- ------------  ---------------      ----- ------------  ---------------
    45      4.459944  4 O  s                 54      1.887128  4 O  pz         
    66     -1.830314  5 H  s                 75     -1.655494  6 H  s          
     4      1.537684  1 O  s                 34     -1.418804  3 H  s          
    25     -1.029406  2 H  s                 67     -0.608810  5 H  s          
    12      0.431600  1 O  py                13      0.423948  1 O  pz         

 Vector   16  Occ=0.000000D+00  E= 1.937956D-01
              MO Center= -8.3D-03,  1.8D+00,  2.2D-01, r^2= 8.3D+00
   Bfn.  Coefficient  Atom+Function         Bfn.  Coefficient  Atom+Function  
  ----- ------------  ---------------      ----- ------------  ---------------
     4      2.346108  1 O  s                 53      2.140395  4 O  py         
    45      1.315253  4 O  s                 76     -1.193085  6 H  s          
    67     -0.922660  5 H  s                 12      0.769299  1 O  py         
    75     -0.747575  6 H  s                 54     -0.471149  4 O  pz         
    80      0.386051  6 H  px                82      0.386465  6 H  pz         

 Vector   17  Occ=0.000000D+00  E= 2.093925D-01
              MO Center=  3.6D-02, -1.3D+00,  4.6D-02, r^2= 9.6D+00
   Bfn.  Coefficient  Atom+Function         Bfn.  Coefficient  Atom+Function  
  ----- ------------  ---------------      ----- ------------  ---------------
     4      5.730786  1 O  s                 45     -4.849894  4 O  s          
    12      2.305339  1 O  py                25     -2.097442  2 H  s          
    13      1.925213  1 O  pz                34     -1.539430  3 H  s          
    53      1.493098  4 O  py                54     -1.312025  4 O  pz         
    66      1.260901  5 H  s                 75      0.966359  6 H  s          

 Vector   18  Occ=0.000000D+00  E= 2.160895D-01
              MO Center= -4.9D-02,  8.4D-01,  5.6D-02, r^2= 1.1D+01
   Bfn.  Coefficient  Atom+Function         Bfn.  Coefficient  Atom+Function  
  ----- ------------  ---------------      ----- ------------  ---------------
    52      2.818627  4 O  px                67      2.225350  5 H  s          
    66      2.182459  5 H  s                 76     -2.168649  6 H  s          
    75     -2.055209  6 H  s                 34     -1.501767  3 H  s          
    25      1.218493  2 H  s                 35     -0.941033  3 H  s          
    26      0.928784  2 H  s                 11      0.751108  1 O  px         

 Vector   19  Occ=0.000000D+00  E= 2.224341D-01
              MO Center= -6.2D-02,  2.0D-01, -7.5D-02, r^2= 9.3D+00
   Bfn.  Coefficient  Atom+Function         Bfn.  Coefficient  Atom+Function  
  ----- ------------  ---------------      ----- ------------  ---------------
    53      1.912018  4 O  py                45      1.179503  4 O  s          
    66     -1.028085  5 H  s                 75     -1.014586  6 H  s          
    26      0.781208  2 H  s                 67     -0.628402  5 H  s          
    35      0.622669  3 H  s                 76     -0.562749  6 H  s          
    34      0.498703  3 H  s                  4     -0.458934  1 O  s          

 Vector   20  Occ=0.000000D+00  E= 2.614286D-01
              MO Center=  6.3D-01, -1.1D+00,  5.1D-02, r^2= 9.0D+00
   Bfn.  Coefficient  Atom+Function         Bfn.  Coefficient  Atom+Function  
  ----- ------------  ---------------      ----- ------------  ---------------
    35      3.052036  3 H  s                 11     -2.052679  1 O  px         
    76     -1.844539  6 H  s                 25     -1.725986  2 H  s          
    34      1.636825  3 H  s                 12      1.301143  1 O  py         
    26     -1.282697  2 H  s                 53      0.978966  4 O  py         
    45     -0.848607  4 O  s                 67      0.698628  5 H  s          

 Vector   21  Occ=0.000000D+00  E= 2.635300D-01
              MO Center= -7.8D-01, -1.1D+00,  9.7D-02, r^2= 9.3D+00
   Bfn.  Coefficient  Atom+Function         Bfn.  Coefficient  Atom+Function  
  ----- ------------  ---------------      ----- ------------  ---------------
    26      3.112997  2 H  s                 67     -2.307486  5 H  s          
    11      1.981974  1 O  px                25      1.956735  2 H  s          
    34     -1.433448  3 H  s                 12      1.411333  1 O  py         
    35     -1.349803  3 H  s                 76      1.219526  6 H  s          
     4     -1.148506  1 O  s                 53      0.651786  4 O  py         

 Vector   22  Occ=0.000000D+00  E= 2.861144D-01
              MO Center=  2.2D-01,  1.2D-01,  5.8D-03, r^2= 8.0D+00
   Bfn.  Coefficient  Atom+Function         Bfn.  Coefficient  Atom+Function  
  ----- ------------  ---------------      ----- ------------  ---------------
    35      2.446139  3 H  s                 26     -2.206647  2 H  s          
    52      2.179652  4 O  px                76     -1.844761  6 H  s          
    67      1.808192  5 H  s                 11     -1.775631  1 O  px         
    66      1.635739  5 H  s                 34      1.542800  3 H  s          
    75     -1.153721  6 H  s                  4     -1.055402  1 O  s          

 Vector   23  Occ=0.000000D+00  E= 2.955673D-01
              MO Center= -7.9D-02,  4.1D-01, -3.3D-02, r^2= 7.3D+00
   Bfn.  Coefficient  Atom+Function         Bfn.  Coefficient  Atom+Function  
  ----- ------------  ---------------      ----- ------------  ---------------
     4      3.865299  1 O  s                 53      1.919833  4 O  py         
    12      1.620949  1 O  py                75     -1.568635  6 H  s          
    25     -1.118249  2 H  s                 34     -1.051798  3 H  s          
    66     -0.786693  5 H  s                 54      0.668154  4 O  pz         
    13     -0.638731  1 O  pz                32      0.548015  2 H  pz         

 Vector   24  Occ=0.000000D+00  E= 3.098854D-01
              MO Center=  5.6D-02,  2.1D-01,  1.7D-01, r^2= 6.3D+00
   Bfn.  Coefficient  Atom+Function         Bfn.  Coefficient  Atom+Function  
  ----- ------------  ---------------      ----- ------------  ---------------
    11      1.327986  1 O  px                45     -1.287509  4 O  s          
    75      1.181455  6 H  s                 52     -0.847705  4 O  px         
    25      0.622025  2 H  s                 34     -0.582111  3 H  s          
    72     -0.534778  5 H  py                30     -0.443889  2 H  px         
    81      0.444174  6 H  py                 4      0.423490  1 O  s          

 Vector   25  Occ=0.000000D+00  E= 3.263273D-01
              MO Center=  7.1D-03,  1.0D-01, -3.6D-01, r^2= 6.7D+00
   Bfn.  Coefficient  Atom+Function         Bfn.  Coefficient  Atom+Function  
  ----- ------------  ---------------      ----- ------------  ---------------
    45      4.629809  4 O  s                 53     -2.326746  4 O  py         
    34     -1.326893  3 H  s                 66     -1.327156  5 H  s          
    12     -1.263729  1 O  py                 4     -1.028779  1 O  s          
    35     -0.690844  3 H  s                 25     -0.672341  2 H  s          
    75     -0.662423  6 H  s                 13      0.590745  1 O  pz         

 Vector   26  Occ=0.000000D+00  E= 4.064586D-01
              MO Center= -7.9D-02,  9.7D-02, -2.2D-01, r^2= 7.1D+00
   Bfn.  Coefficient  Atom+Function         Bfn.  Coefficient  Atom+Function  
  ----- ------------  ---------------      ----- ------------  ---------------
     4      7.053388  1 O  s                 45     -6.966705  4 O  s          
    25     -2.737551  2 H  s                 66      2.648178  5 H  s          
    34     -2.511484  3 H  s                 75      2.408343  6 H  s          
    12      2.111837  1 O  py                13      0.820071  1 O  pz         
    54     -0.711991  4 O  pz                72      0.520412  5 H  py         

 Vector   27  Occ=0.000000D+00  E= 4.190415D-01
              MO Center= -6.0D-03,  1.7D-01,  2.5D-01, r^2= 5.8D+00
   Bfn.  Coefficient  Atom+Function         Bfn.  Coefficient  Atom+Function  
  ----- ------------  ---------------      ----- ------------  ---------------
     4      2.299309  1 O  s                 45     -1.558405  4 O  s          
    53      1.205854  4 O  py                25     -0.888623  2 H  s          
    41      0.826908  3 H  pz                82     -0.820487  6 H  pz         
    75      0.611236  6 H  s                 31      0.599280  2 H  py         
    72     -0.600387  5 H  py                12      0.567782  1 O  py         

 Vector   28  Occ=0.000000D+00  E= 4.367277D-01
              MO Center= -2.3D-01,  1.3D-01,  3.3D-01, r^2= 5.8D+00
   Bfn.  Coefficient  Atom+Function         Bfn.  Coefficient  Atom+Function  
  ----- ------------  ---------------      ----- ------------  ---------------
     4      1.252072  1 O  s                 66      1.132869  5 H  s          
    32      1.069766  2 H  pz                45     -0.961647  4 O  s          
    75     -0.911911  6 H  s                 80      0.906332  6 H  px         
    73     -0.796946  5 H  pz                40      0.722186  3 H  py         
    53      0.661356  4 O  py                34     -0.515902  3 H  s          

 Vector   29  Occ=0.000000D+00  E= 4.864350D-01
              MO Center= -2.7D-02,  7.2D-01,  1.3D-01, r^2= 6.2D+00
   Bfn.  Coefficient  Atom+Function         Bfn.  Coefficient  Atom+Function  
  ----- ------------  ---------------      ----- ------------  ---------------
    45      7.513281  4 O  s                 75     -3.502190  6 H  s          
    66     -3.307347  5 H  s                 34     -2.662189  3 H  s          
    54      2.528904  4 O  pz                 4      1.978188  1 O  s          
    25     -1.608273  2 H  s                 73     -0.861085  5 H  pz         
    51      0.805355  4 O  pz                71     -0.571203  5 H  px         

 Vector   30  Occ=0.000000D+00  E= 5.051519D-01
              MO Center=  1.5D-01,  5.9D-01,  2.3D-01, r^2= 6.3D+00
   Bfn.  Coefficient  Atom+Function         Bfn.  Coefficient  Atom+Function  
  ----- ------------  ---------------      ----- ------------  ---------------
    52      2.862041  4 O  px                45     -2.305618  4 O  s          
    39     -1.427366  3 H  px                80     -1.349920  6 H  px         
     4      1.237151  1 O  s                 66      1.223356  5 H  s          
    71     -1.181847  5 H  px                30     -1.123791  2 H  px         
    82      0.959858  6 H  pz                67      0.952415  5 H  s          


 center of mass
 --------------
 x =   0.01213639 y =  -0.07047860 z =  -0.06848941

 moments of inertia (a.u.)
 ------------------
         151.327239406048          -0.000000000000           0.000000000000
          -0.000000000000          10.476176333996           0.000000000000
           0.000000000000           0.000000000000         157.369946579262

  Mulliken analysis of the total density
  --------------------------------------

    Atom       Charge   Shell Charges
 -----------   ------   -------------------------------------------------------
    1 O    8     8.36   2.00  0.84  0.83  0.10  2.83  1.64  0.12  0.01 -0.02
    2 H    1     0.83   0.73  0.01 -0.00  0.08  0.02
    3 H    1     0.79   0.72 -0.01 -0.00  0.08  0.01
    4 O    8     8.34   2.00  0.85  0.81  0.07  2.82  1.66  0.13  0.01 -0.02
    5 H    1     0.84   0.72  0.02 -0.00  0.08  0.02
    6 H    1     0.84   0.72  0.02 -0.00  0.08  0.02

       Multipole analysis of the density wrt the origin
       ------------------------------------------------

     L   x y z        total         open         nuclear
     -   - - -        -----         ----         -------
     0   0 0 0     -0.000000      0.000000     20.000000

     1   1 0 0     -0.172224      0.000000     -0.000000
     1   0 1 0      1.255174      0.000000      0.000000
     1   0 0 1      0.992803      0.000000      0.000000

     2   2 0 0     -6.467113      0.000000      8.187357
     2   1 1 0      0.388407      0.000000      0.323899
     2   1 0 1      0.057670      0.000000      0.033325
     2   0 2 0    -11.123074      0.000000     83.625138
     2   0 1 1      0.972642      0.000000      0.775002
     2   0 0 2    -10.320934      0.000000      1.971091


 Parallel integral file used     137 records with       0 large values



                   Four-Index Transformation
                   -------------------------
          Number of basis functions:             82
          Number of shells:                      38
          Number of occupied orbitals:           10
          Number of occ. correlated orbitals:    10
          Block length:                          16
          Superscript MO index range:      1 -   10
          Subscript MO index range:        1 -   82
          MO coefficients read from:  ./input_dimer.movecs     
          Number of operator matrices in core:  110
          Half-transformed integrals produced

     Pass:    1     Index range:    1  -   10     Time:      1.14
 ------------------------------------------
 MP2 Energy (coupled cluster initial guess)
 ------------------------------------------
 Reference energy:           -152.033624835744206
 MP2 Corr. energy:             -0.451732168167723
 Total MP2 energy:           -152.485357003911929


 ****************************************************************************
              the segmented parallel ccsd program:    1 nodes
 ****************************************************************************




 level of theory    ccsd(t)
 number of core         0
 number of occupied    10
 number of virtual     72
 number of deleted      0
 total functions       82
 number of shells      38
 basis label          566



   ***** ccsd parameters *****
   iprt   =     0
   convi  =  0.100E-05
   maxit  =    20
   mxvec  =     5
 memory             52411036
  Using  1 OpenMP thread(s) in CCSD
  avail0,avail1,avail0-avail1                  2325                 2325                    0
  avail0,avail1,avail0-avail1                  2325                 2325                    0
  avail0,avail1,avail0-avail1                  2325                 2326                   -1
  avail0,avail1,avail0-avail1                  2325                 2330                   -5
  Restarting from old vector in ./input_dimer.t2


-------------------------------------------------------------------------
 iter     correlation     delta       rms       T2     Non-T2      Main
             energy      energy      error      ampl     ampl      Block
                                                time     time      time
-------------------------------------------------------------------------
   1     -0.4531402192 -4.531D-01  4.759D-01     3.05     0.00     2.90
   2     -0.4549853637 -1.845D-03  3.326D-01     0.84     0.00     0.69
   3     -0.4639426449 -8.957D-03  7.459D-02     0.77     0.00     0.62
   4     -0.4652342084 -1.292D-03  2.815D-02     0.78     0.00     0.63
   5     -0.4659155091 -6.813D-04  1.420D-03     0.78     0.00     0.63
   6     -0.4662065163 -2.910D-04  2.304D-03     0.79     0.00     0.63
   7     -0.4662261988 -1.968D-05  3.350D-04     0.80     0.00     0.65
   8     -0.4662236510  2.548D-06  3.707D-04     0.77     0.00     0.62
   9     -0.4662217853  1.866D-06  9.049D-05     0.77     0.00     0.62
  10     -0.4662164132  5.372D-06  5.962D-05     0.77     0.00     0.62
  11     -0.4662168126 -3.994D-07  9.558D-06     0.76     0.00     0.62
  12     -0.4662171943 -3.817D-07  1.898D-05     0.91     0.00     0.76
  13     -0.4662175807 -3.864D-07  5.972D-06     0.77     0.00     0.62
  14     -0.4662177523 -1.716D-07  2.363D-06     0.77     0.00     0.62
  15     -0.4662178026 -5.033D-08  6.280D-07     1.20     0.01     0.86
                  *************converged*************
-------------------------------------------------------------------------

 -----------
 CCSD Energy
 -----------
 Reference energy:            -152.033624835744206
 CCSD corr. energy:             -0.466217802629417
 Total CCSD energy:           -152.499842638373622


 --------------------------------
 Spin Component Scaled (SCS) CCSD
 --------------------------------
 Same spin contribution:                 -0.103806888663778
 Same spin scaling factor:                1.130000000000000
 Opposite spin contribution:             -0.362410913965639
 Opposite spin scaling fact.:             1.270000000000000
 SCS-CCSD correlation energy:            -0.577563644926430
 Total SCS-CCSD energy:                -152.611188480670620
 memory             52411036


*********triples calculation*********

nkpass=    1; nvpass=    1; memdrv=         271656; memtrn=         680678; memavail=       52410300
 memory available/node                       52410300
 total number of virtual orbitals        72
 number of virtuals per integral pass    72
 number of integral evaluations           1
 number of occupied per triples pass     10
 number of triples passes                 1

 commencing integral evaluation        1 at          17.02
  symmetry use  F
task         2 out of       741 done   0%  at       0.0 secs
task        38 out of       741 done   5%  at       0.3 secs
task        75 out of       741 done  10%  at       0.5 secs
task       112 out of       741 done  15%  at       0.6 secs
task       149 out of       741 done  20%  at       0.8 secs
task       186 out of       741 done  25%  at       0.9 secs
task       223 out of       741 done  30%  at       1.1 secs
task       260 out of       741 done  35%  at       1.2 secs
task       297 out of       741 done  40%  at       1.4 secs
task       334 out of       741 done  45%  at       1.6 secs
task       371 out of       741 done  50%  at       1.7 secs
task       408 out of       741 done  55%  at       1.8 secs
task       445 out of       741 done  60%  at       1.9 secs
task       482 out of       741 done  65%  at       1.9 secs
task       519 out of       741 done  70%  at       2.0 secs
task       556 out of       741 done  75%  at       2.1 secs
task       593 out of       741 done  80%  at       2.2 secs
task       630 out of       741 done  85%  at       2.2 secs
task       667 out of       741 done  90%  at       2.3 secs
task       704 out of       741 done  95%  at       2.4 secs
task       741 out of       741 done 100%  at       2.5 secs
 commencing triples evaluation - blocking       1
 ccsd(t): done        1 out of       72 progress:    1.4%
 ccsd(t): done        2 out of       72 progress:    2.8%
 ccsd(t): done        3 out of       72 progress:    4.2%
 ccsd(t): done        4 out of       72 progress:    5.6%
 ccsd(t): done        5 out of       72 progress:    6.9%
 ccsd(t): done        6 out of       72 progress:    8.3%
 ccsd(t): done        7 out of       72 progress:    9.7%
 ccsd(t): done        8 out of       72 progress:   11.1%
 ccsd(t): done        9 out of       72 progress:   12.5%
 ccsd(t): done       10 out of       72 progress:   13.9%
 ccsd(t): done       11 out of       72 progress:   15.3%
 ccsd(t): done       12 out of       72 progress:   16.7%
 ccsd(t): done       13 out of       72 progress:   18.1%
 ccsd(t): done       14 out of       72 progress:   19.4%
 ccsd(t): done       15 out of       72 progress:   20.8%
 ccsd(t): done       16 out of       72 progress:   22.2%
 ccsd(t): done       17 out of       72 progress:   23.6%
 ccsd(t): done       18 out of       72 progress:   25.0%
 ccsd(t): done       19 out of       72 progress:   26.4%
 ccsd(t): done       20 out of       72 progress:   27.8%
 ccsd(t): done       21 out of       72 progress:   29.2%
 ccsd(t): done       22 out of       72 progress:   30.6%
 ccsd(t): done       23 out of       72 progress:   31.9%
 ccsd(t): done       24 out of       72 progress:   33.3%
 ccsd(t): done       25 out of       72 progress:   34.7%
 ccsd(t): done       26 out of       72 progress:   36.1%
 ccsd(t): done       27 out of       72 progress:   37.5%
 ccsd(t): done       28 out of       72 progress:   38.9%
 ccsd(t): done       29 out of       72 progress:   40.3%
 ccsd(t): done       30 out of       72 progress:   41.7%
 ccsd(t): done       31 out of       72 progress:   43.1%
 ccsd(t): done       32 out of       72 progress:   44.4%
 ccsd(t): done       33 out of       72 progress:   45.8%
 ccsd(t): done       34 out of       72 progress:   47.2%
 ccsd(t): done       35 out of       72 progress:   48.6%
 ccsd(t): done       36 out of       72 progress:   50.0%
 ccsd(t): done       37 out of       72 progress:   51.4%
 ccsd(t): done       38 out of       72 progress:   52.8%
 ccsd(t): done       39 out of       72 progress:   54.2%
 ccsd(t): done       40 out of       72 progress:   55.6%
 ccsd(t): done       41 out of       72 progress:   56.9%
 ccsd(t): done       42 out of       72 progress:   58.3%
 ccsd(t): done       43 out of       72 progress:   59.7%
 ccsd(t): done       44 out of       72 progress:   61.1%
 ccsd(t): done       45 out of       72 progress:   62.5%
 ccsd(t): done       46 out of       72 progress:   63.9%
 ccsd(t): done       47 out of       72 progress:   65.3%
 ccsd(t): done       48 out of       72 progress:   66.7%
 ccsd(t): done       49 out of       72 progress:   68.1%
 ccsd(t): done       50 out of       72 progress:   69.4%
 ccsd(t): done       51 out of       72 progress:   70.8%
 ccsd(t): done       52 out of       72 progress:   72.2%
 ccsd(t): done       53 out of       72 progress:   73.6%
 ccsd(t): done       54 out of       72 progress:   75.0%
 ccsd(t): done       55 out of       72 progress:   76.4%
 ccsd(t): done       56 out of       72 progress:   77.8%
 ccsd(t): done       57 out of       72 progress:   79.2%
 ccsd(t): done       58 out of       72 progress:   80.6%
 ccsd(t): done       59 out of       72 progress:   81.9%
 ccsd(t): done       60 out of       72 progress:   83.3%
 ccsd(t): done       61 out of       72 progress:   84.7%
 ccsd(t): done       62 out of       72 progress:   86.1%
 ccsd(t): done       63 out of       72 progress:   87.5%
 ccsd(t): done       64 out of       72 progress:   88.9%
 ccsd(t): done       65 out of       72 progress:   90.3%
 ccsd(t): done       66 out of       72 progress:   91.7%
 ccsd(t): done       67 out of       72 progress:   93.1%
 ccsd(t): done       68 out of       72 progress:   94.4%
 ccsd(t): done       69 out of       72 progress:   95.8%
 ccsd(t): done       70 out of       72 progress:   97.2%
 ccsd(t): done       71 out of       72 progress:   98.6%
 ccsd(t): done       72 out of       72 progress:  100.0%
 Time for integral evaluation pass     1        2.53
 Time for triples evaluation pass      1        8.57

 pseudo-e(mp4)  -0.12640096829421E-01
 pseudo-e(mp5)   0.95349639101375E-03
        e(t)    -0.11686600438407E-01

 --------------
 CCSD(T) Energy
 --------------
 Reference energy:                    -152.033624835744206

 CCSD corr. energy:                     -0.466217802629417
 T(CCSD) corr. energy:                  -0.012640096829421
 Total CCSD+T(CCSD) energy:           -152.512482735203037

 CCSD corr. energy:                     -0.466217802629417
 (T) corr. energy:                      -0.011686600438407
 Total CCSD(T) energy:                -152.511529238812017

 routine      calls  cpu(0)   cpu-min  cpu-ave  cpu-max   i/o 
 aoccsd          1     0.01     0.01     0.01     0.01    0.00
 iterdrv         1     0.05     0.05     0.05     0.05    0.00
 pampt          15     0.09     0.09     0.09     0.09    0.00
 t2pm           15     0.14     0.14     0.14     0.14    0.00
 sxy            15     0.10     0.10     0.10     0.10    0.00
 ints       549075     1.76     1.76     1.76     1.76    0.00
 f_write      1482     0.45     0.45     0.45     0.45    0.00
 t2eri       11115     7.98     7.98     7.98     7.98    0.00
 idx2        11115     1.27     1.27     1.27     1.27    0.00
 idx34          15     0.16     0.16     0.16     0.16    0.00
 ht2pm          15     0.18     0.18     0.18     0.18    0.00
 itm            15     2.03     2.03     2.03     2.03    0.00
 pdiis          15     0.03     0.03     0.03     0.03    0.00
 r_read      10374     0.31     0.31     0.31     0.31    0.00
 triples         1     0.01     0.01     0.01     0.01    0.00
 rdtrpo          1     0.01     0.01     0.01     0.01    0.00
 trpmos          1     2.53     2.53     2.53     2.53    0.00
 trpdrv          1     0.62     0.62     0.62     0.62    0.00
 dovvv       79200     5.51     5.51     5.51     5.51    0.00
 doooo       79200     0.94     0.94     0.94     0.94    0.00
 tengy       72000     1.46     1.46     1.46     1.46    0.00
 Total                25.62    25.62    25.62    25.62    0.00

 Task  times  cpu:       28.1s     wall:       28.1s
 Summary of allocated global arrays
-----------------------------------
  No active global arrays


MA_summarize_allocated_blocks: starting scan ...
MA_summarize_allocated_blocks: scan completed: 0 heap blocks, 0 stack blocks
MA usage statistics:

	allocation statistics:
					      heap	     stack
					      ----	     -----
	current number of blocks	         0	         0
	maximum number of blocks	        17	        41
	current total bytes		         0	         0
	maximum total bytes		  96555632	 377953640
	maximum total K-bytes		     96556	    377954
	maximum total M-bytes		        97	       378


                                NWChem Input Module
                                -------------------




                                     CITATION
                                     --------
                Please cite the following reference when publishing
                           results obtained with NWChem:

          E. Apra, E. J. Bylaska, W. A. de Jong, N. Govind, K. Kowalski,
       T. P. Straatsma, M. Valiev, H. J. J. van Dam, Y. Alexeev, J. Anchell,
       V. Anisimov, F. W. Aquino, R. Atta-Fynn, J. Autschbach, N. P. Bauman,
     J. C. Becca, D. E. Bernholdt, K. Bhaskaran-Nair, S. Bogatko, P. Borowski,
         J. Boschen, J. Brabec, A. Bruner, E. Cauet, Y. Chen, G. N. Chuev,
      C. J. Cramer, J. Daily, M. J. O. Deegan, T. H. Dunning Jr., M. Dupuis,
   K. G. Dyall, G. I. Fann, S. A. Fischer, A. Fonari, H. Fruchtl, L. Gagliardi,
      J. Garza, N. Gawande, S. Ghosh, K. Glaesemann, A. W. Gotz, J. Hammond,
       V. Helms, E. D. Hermes, K. Hirao, S. Hirata, M. Jacquelin, L. Jensen,
   B. G. Johnson, H. Jonsson, R. A. Kendall, M. Klemm, R. Kobayashi, V. Konkov,
      S. Krishnamoorthy, M. Krishnan, Z. Lin, R. D. Lins, R. J. Littlefield,
      A. J. Logsdail, K. Lopata, W. Ma, A. V. Marenich, J. Martin del Campo,
   D. Mejia-Rodriguez, J. E. Moore, J. M. Mullin, T. Nakajima, D. R. Nascimento,
    J. A. Nichols, P. J. Nichols, J. Nieplocha, A. Otero-de-la-Roza, B. Palmer,
    A. Panyala, T. Pirojsirikul, B. Peng, R. Peverati, J. Pittner, L. Pollack,
   R. M. Richard, P. Sadayappan, G. C. Schatz, W. A. Shelton, D. W. Silverstein,
   D. M. A. Smith, T. A. Soares, D. Song, M. Swart, H. L. Taylor, G. S. Thomas,
            V. Tipparaju, D. G. Truhlar, K. Tsemekhman, T. Van Voorhis,
      A. Vazquez-Mayagoitia, P. Verma, O. Villa, A. Vishnu, K. D. Vogiatzis,
        D. Wang, J. H. Weare, M. J. Williamson, T. L. Windus, K. Wolinski,
        A. T. Wong, Q. Wu, C. Yang, Q. Yu, M. Zacharias, Z. Zhang, Y. Zhao,
                                and R. J. Harrison
                        "NWChem: Past, present, and future
                         J. Chem. Phys. 152, 184102 (2020)
                               doi:10.1063/5.0004997

                                      AUTHORS
                                      -------
  E. Apra, E. J. Bylaska, N. Govind, K. Kowalski, M. Valiev, D. Mejia-Rodriguez,
       A. Kunitsa, N. P. Bauman, A. Panyala, W. A. de Jong, T. P. Straatsma,
   H. J. J. van Dam, D. Wang, T. L. Windus, J. Hammond, J. Autschbach, A. Woods,
    K. Bhaskaran-Nair, J. Brabec, K. Lopata, S. A. Fischer, S. Krishnamoorthy,
     M. Jacquelin, W. Ma, M. Klemm, O. Villa, Y. Chen, V. Anisimov, F. Aquino,
     S. Hirata, M. T. Hackler, E. Hermes, L. Jensen, J. E. Moore, J. C. Becca,
      V. Konjkov, T. Risthaus, M. Malagoli, A. Marenich, A. Otero-de-la-Roza,
        J. Mullin, P. Nichols, R. Peverati, J. Pittner, Y. Zhao, P.-D. Fan,
        A. Fonari, M. J. Williamson, R. J. Harrison, J. R. Rehr, M. Dupuis,
     D. Silverstein, D. M. A. Smith, J. Nieplocha, V. Tipparaju, M. Krishnan,
     B. E. Van Kuiken, A. Vazquez-Mayagoitia, M. Swart, Q. Wu, T. Van Voorhis,
     A. A. Auer, M. Nooijen, L. D. Crosby, E. Brown, G. Cisneros, G. I. Fann,
   H. Fruchtl, J. Garza, K. Hirao, R. A. Kendall, J. A. Nichols, K. Tsemekhman,
    K. Wolinski, J. Anchell, D. E. Bernholdt, P. Borowski, T. Clark, D. Clerc,
   H. Dachsel, M. J. O. Deegan, K. Dyall, D. Elwood, E. Glendening, M. Gutowski,
   A. C. Hess, J. Jaffe, B. G. Johnson, J. Ju, R. Kobayashi, R. Kutteh, Z. Lin,
   R. Littlefield, X. Long, B. Meng, T. Nakajima, S. Niu, L. Pollack, M. Rosing,
   K. Glaesemann, G. Sandrone, M. Stave, H. Taylor, G. Thomas, J. H. van Lenthe,
                               A. T. Wong, Z. Zhang.

 Total times  cpu:       28.1s     wall:       28.1s
