 argument  1 = /var/folders/v1/k9l8hql13n1gcrjl_yh_gs5m0000gn/T/tmpu8jwkdb_/input_B_AB.txt
                                         
                                         


             Northwest Computational Chemistry Package (NWChem) 7.2.3
             --------------------------------------------------------


                    Environmental Molecular Sciences Laboratory
                       Pacific Northwest National Laboratory
                                Richland, WA 99352

                              Copyright (c) 1994-2022
                       Pacific Northwest National Laboratory
                            Battelle Memorial Institute

             NWChem is an open-source computational chemistry package
                        distributed under the terms of the
                      Educational Community License (ECL) 2.0
             A copy of the license is included with this distribution
                              in the LICENSE.TXT file

                                  ACKNOWLEDGMENT
                                  --------------

            This software and its documentation were developed at the
            EMSL at Pacific Northwest National Laboratory, a multiprogram
            national laboratory, operated for the U.S. Department of Energy
            by Battelle under Contract Number DE-AC05-76RL01830. Support
            for this work was provided by the Department of Energy Office
            of Biological and Environmental Research, Office of Basic
            Energy Sciences, and the Office of Advanced Scientific Computing.


           Job information
           ---------------

    hostname        = visitor-wireless1-147-155-221-109.ameslab.gov
    program         = nwchem
    date            = Wed Jul  2 12:37:45 2025

    compiled        = Thu_Dec_26_16:03:44_2024
    source          = /private/tmp/nwchem-20241226-24280-orrtsi/nwchem-7.2.3
    nwchem branch   = 7.2.3
    nwchem revision = d690e065
    ga revision     = 5.8.0
    use scalapack   = T
    input           = /var/folders/v1/k9l8hql13n1gcrjl_yh_gs5m0000gn/T/tmpu8jwkdb_/input_B_AB.txt
    prefix          = input_B_AB.
    data base       = ./input_B_AB.db
    status          = restart
    nproc           =        8
    time left       =     -1s



           Memory information
           ------------------

    heap     =  536870908 doubles =   4096.0 Mbytes
    stack    =  536870913 doubles =   4096.0 Mbytes
    global   = 1073741824 doubles =   8192.0 Mbytes (distinct from heap & stack)
    total    = 2147483645 doubles =  16384.0 Mbytes
    verify   = yes
    hardfail = no 


           Directory information
           ---------------------

  0 permanent = .
  0 scratch   = .


           Previous task information
           -------------------------

    Theory    = ccsd(t)                         
    Operation = energy                        
    Status    = ok                            
    Qmmm      = F
    Ignore    = F


           Geometries in the database
           --------------------------

       Name                              Natoms  Last Modified
       --------------------------------  ------  ------------------------
    1  geometry                               6  Wed Jul  2 12:35:47 2025  

  The geometry named "geometry" is the default for restart



           Basis sets in the database
           --------------------------

       Name                              Natoms  Last Modified
        --------------------------------  ------  ------------------------
    1  ao basis                               4  Wed Jul  2 12:35:47 2025  

  The basis set named "ao basis" is the default AO basis for restart




                                NWChem Input Module
                                -------------------



 Scaling coordinates for geometry "geometry" by  1.889725989
 (inverse scale =  0.529177249)

 C1  symmetry detected


                             Geometry "geometry" -> ""
                             -------------------------

 Output coordinates in angstroms (scale by  1.889725989 to convert to a.u.)

  No.       Tag          Charge          X              Y              Z
 ---- ---------------- ---------- -------------- -------------- --------------
    1 bqO                  0.0000     0.05543676    -2.20082466    -0.49064472
    2 bqH                  0.0000    -0.69522730    -2.32314725     0.10494740
    3 bqH                  0.0000     0.82548269    -2.25702205     0.08989496
    4 O                    8.0000     0.11882293     0.00539871    -0.00269716
    5 H                    1.0000    -0.45306229    -0.13536015     0.76302050
    6 H                    1.0000    -0.49752118     0.09217046    -0.74144326

      Atomic Mass 
      ----------- 

      O                 15.994910
      H                  1.007825


 Effective nuclear repulsion energy (a.u.)       9.1123991190

            Nuclear Dipole moment (a.u.) 
            ----------------------------
        X                 Y               Z
 ---------------- ---------------- ----------------
     0.0000000000     0.0000000000    -0.0000000000


            XYZ format geometry
            -------------------
     6
 geometry
 bqO                   0.05543676    -2.20082466    -0.49064472
 bqH                  -0.69522730    -2.32314725     0.10494740
 bqH                   0.82548269    -2.25702205     0.08989496
 O                     0.11882293     0.00539871    -0.00269716
 H                    -0.45306229    -0.13536015     0.76302050
 H                    -0.49752118     0.09217046    -0.74144326

 ==============================================================================
                                internuclear distances
 ------------------------------------------------------------------------------
       center one      |      center two      | atomic units |  angstroms
 ------------------------------------------------------------------------------
    2 bqH              |   1 bqO              |     1.82551  |     0.96602
    3 bqH              |   1 bqO              |     1.82547  |     0.96600
    3 bqH              |   2 bqH              |     2.87658  |     1.52222
    4 O                |   1 bqO              |     4.27159  |     2.26043
    4 O                |   2 bqH              |     4.66590  |     2.46909
    4 O                |   3 bqH              |     4.48247  |     2.37202
    5 H                |   1 bqO              |     4.66590  |     2.46909
    5 H                |   2 bqH              |     4.34149  |     2.29742
    5 H                |   4 O                |     1.82551  |     0.96602
    6 H                |   1 bqO              |     4.48247  |     2.37202
    6 H                |   4 O                |     1.82547  |     0.96600
 ------------------------------------------------------------------------------
                         number of included internuclear distances:         11
 ==============================================================================



 ==============================================================================
                                 internuclear angles
 ------------------------------------------------------------------------------
        center 1       |       center 2       |       center 3       |  degrees
 ------------------------------------------------------------------------------
    2 bqH              |   1 bqO              |   3 bqH              |   103.98
    2 bqH              |   1 bqO              |   4 O                |    90.70
    1 bqO              |   2 bqH              |   5 H                |    88.52
    2 bqH              |   1 bqO              |   6 H                |    90.37
    3 bqH              |   1 bqO              |   4 O                |    84.53
    3 bqH              |   1 bqO              |   5 H                |    84.70
    3 bqH              |   1 bqO              |   6 H                |   107.79
    1 bqO              |   4 O                |   5 H                |    90.70
    1 bqO              |   4 O                |   6 H                |    84.53
    5 H                |   1 bqO              |   6 H                |    36.58
    2 bqH              |   1 bqO              |   3 bqH              |   103.98
    2 bqH              |   1 bqO              |   4 O                |    90.70
    1 bqO              |   2 bqH              |   5 H                |    88.52
    2 bqH              |   3 bqH              |   4 O                |    75.18
    3 bqH              |   2 bqH              |   5 H                |    81.73
    2 bqH              |   5 H                |   4 O                |    88.52
    3 bqH              |   1 bqO              |   2 bqH              |   103.98
    3 bqH              |   1 bqO              |   4 O                |    84.53
    2 bqH              |   3 bqH              |   4 O                |    75.18
    4 O                |   1 bqO              |   2 bqH              |    90.70
    4 O                |   1 bqO              |   3 bqH              |    84.53
    1 bqO              |   4 O                |   5 H                |    90.70
    1 bqO              |   4 O                |   6 H                |    84.53
    4 O                |   3 bqH              |   2 bqH              |    75.18
    4 O                |   5 H                |   2 bqH              |    88.52
    2 bqH              |   4 O                |   6 H                |    84.70
    3 bqH              |   4 O                |   5 H                |    90.37
    3 bqH              |   4 O                |   6 H                |   107.79
    5 H                |   4 O                |   6 H                |   103.98
    5 H                |   2 bqH              |   1 bqO              |    88.52
    5 H                |   4 O                |   1 bqO              |    90.70
    2 bqH              |   5 H                |   4 O                |    88.52
    6 H                |   4 O                |   1 bqO              |    84.53
 ------------------------------------------------------------------------------
                            number of included internuclear angles:         33
 ==============================================================================



  library name resolved from: environment
  library file name is: </opt/homebrew/Caskroom/mambaforge/base/envs/ames/share/nwchem/libraries/>
  
                      Basis "ao basis" -> "" (spherical)
                      -----
  bqO
  ---
            Exponent  Coefficients 
       -------------- ---------------------------------------------------------
  1 S  1.17200000E+04  0.000710
  1 S  1.75900000E+03  0.005470
  1 S  4.00800000E+02  0.027837
  1 S  1.13700000E+02  0.104800
  1 S  3.70300000E+01  0.283062
  1 S  1.32700000E+01  0.448719
  1 S  5.02500000E+00  0.270952
  1 S  1.01300000E+00  0.015458

  2 S  1.17200000E+04 -0.000160
  2 S  1.75900000E+03 -0.001263
  2 S  4.00800000E+02 -0.006267
  2 S  1.13700000E+02 -0.025716
  2 S  3.70300000E+01 -0.070924
  2 S  1.32700000E+01 -0.165411
  2 S  5.02500000E+00 -0.116955
  2 S  1.01300000E+00  0.557368

  3 S  3.02300000E-01  1.000000

  4 S  7.89600000E-02  1.000000

  5 P  1.77000000E+01  0.043018
  5 P  3.85400000E+00  0.228913
  5 P  1.04600000E+00  0.508728

  6 P  2.75300000E-01  1.000000

  7 P  6.85600000E-02  1.000000

  8 D  1.18500000E+00  1.000000

  9 D  3.32000000E-01  1.000000

  bqH
  ---
            Exponent  Coefficients 
       -------------- ---------------------------------------------------------
  1 S  1.30100000E+01  0.019685
  1 S  1.96200000E+00  0.137977
  1 S  4.44600000E-01  0.478148

  2 S  1.22000000E-01  1.000000

  3 S  2.97400000E-02  1.000000

  4 P  7.27000000E-01  1.000000

  5 P  1.41000000E-01  1.000000

  O (Oxygen)
  ----------
            Exponent  Coefficients 
       -------------- ---------------------------------------------------------
  1 S  1.17200000E+04  0.000710
  1 S  1.75900000E+03  0.005470
  1 S  4.00800000E+02  0.027837
  1 S  1.13700000E+02  0.104800
  1 S  3.70300000E+01  0.283062
  1 S  1.32700000E+01  0.448719
  1 S  5.02500000E+00  0.270952
  1 S  1.01300000E+00  0.015458

  2 S  1.17200000E+04 -0.000160
  2 S  1.75900000E+03 -0.001263
  2 S  4.00800000E+02 -0.006267
  2 S  1.13700000E+02 -0.025716
  2 S  3.70300000E+01 -0.070924
  2 S  1.32700000E+01 -0.165411
  2 S  5.02500000E+00 -0.116955
  2 S  1.01300000E+00  0.557368

  3 S  3.02300000E-01  1.000000

  4 S  7.89600000E-02  1.000000

  5 P  1.77000000E+01  0.043018
  5 P  3.85400000E+00  0.228913
  5 P  1.04600000E+00  0.508728

  6 P  2.75300000E-01  1.000000

  7 P  6.85600000E-02  1.000000

  8 D  1.18500000E+00  1.000000

  9 D  3.32000000E-01  1.000000

  H (Hydrogen)
  ------------
            Exponent  Coefficients 
       -------------- ---------------------------------------------------------
  1 S  1.30100000E+01  0.019685
  1 S  1.96200000E+00  0.137977
  1 S  4.44600000E-01  0.478148

  2 S  1.22000000E-01  1.000000

  3 S  2.97400000E-02  1.000000

  4 P  7.27000000E-01  1.000000

  5 P  1.41000000E-01  1.000000



 Summary of "ao basis" -> "" (spherical)
 ------------------------------------------------------------------------------
       Tag                 Description            Shells   Functions and Types
 ---------------- ------------------------------  ------  ---------------------
 bqO                      aug-cc-pvdz                9       23   4s3p2d
 bqH                      aug-cc-pvdz                5        9   3s2p
 O                        aug-cc-pvdz                9       23   4s3p2d
 H                        aug-cc-pvdz                5        9   3s2p


                                 NWChem SCF Module
                                 -----------------



  ao basis        = "ao basis"
  functions       =    82
  atoms           =     6
  closed shells   =     5
  open shells     =     0
  charge          =   0.00
  wavefunction    = RHF 
  input vectors   = ./input_B_AB.movecs
  output vectors  = ./input_B_AB.movecs
  use symmetry    = F
  symmetry adapt  = F


 Summary of "ao basis" -> "ao basis" (spherical)
 ------------------------------------------------------------------------------
       Tag                 Description            Shells   Functions and Types
 ---------------- ------------------------------  ------  ---------------------
 bqO                      aug-cc-pvdz                9       23   4s3p2d
 bqH                      aug-cc-pvdz                5        9   3s2p
 O                        aug-cc-pvdz                9       23   4s3p2d
 H                        aug-cc-pvdz                5        9   3s2p



 Forming initial guess at       0.1s


 Loading old vectors from job with title :




 Starting SCF solution at       0.1s



 ----------------------------------------------
         Quadratically convergent ROHF

 Convergence threshold     :          1.000E-06
 Maximum no. of iterations :           30
 Final Fock-matrix accuracy:          1.000E-08
 ----------------------------------------------


 Integral file          = ./input_B_AB.aoints.0
 Record size in doubles =  65536        No. of integs per rec  =  43688
 Max. records in memory =     25        Max. records in file   =    901
 No. of bits per label  =      8        No. of bits per value  =     64


 #quartets = 2.742D+05 #integrals = 5.960D+06 #direct =  0.0% #cached =100.0%


File balance: exchanges=    13  moved=    23  time=   0.0


              iter       energy          gnorm     gmax       time
             ----- ------------------- --------- --------- --------
                 1      -76.0385261502  2.17D-01  6.66D-02      0.5
                 2      -76.0412009911  6.59D-03  1.98D-03      0.6
                 3      -76.0412049976  3.31D-05  6.60D-06      0.8
                 4      -76.0412049977  3.56D-08  7.22D-09      0.9


       Final RHF  results 
       ------------------ 

         Total SCF energy =    -76.041204997749
      One-electron energy =   -122.830488576207
      Two-electron energy =     37.676884459501
 Nuclear repulsion energy =      9.112399118956

        Time for solution =      0.8s


             Final eigenvalues
             -----------------

              1      
    1  -20.5793
    2   -1.3523
    3   -0.7132
    4   -0.5847
    5   -0.5088
    6    0.0312
    7    0.0564
    8    0.0593
    9    0.0672
   10    0.1596
   11    0.1688
   12    0.1888
   13    0.1952
   14    0.2167
   15    0.2308

                       ROHF Final Molecular Orbital Analysis
                       -------------------------------------

 Vector    2  Occ=2.000000D+00  E=-1.352302D+00
              MO Center= -4.9D-02, -2.2D-03,  1.1D-03, r^2= 5.0D-01
   Bfn.  Coefficient  Atom+Function         Bfn.  Coefficient  Atom+Function  
  ----- ------------  ---------------      ----- ------------  ---------------
    43      0.448515  4 O  s                 44      0.384613  4 O  s          
    65      0.203154  5 H  s                 74      0.203157  6 H  s          

 Vector    3  Occ=2.000000D+00  E=-7.132262D-01
              MO Center= -9.5D-02, -4.3D-03,  2.2D-03, r^2= 7.7D-01
   Bfn.  Coefficient  Atom+Function         Bfn.  Coefficient  Atom+Function  
  ----- ------------  ---------------      ----- ------------  ---------------
    48      0.492912  4 O  pz                65      0.347284  5 H  s          
    74     -0.347408  6 H  s                 51      0.200324  4 O  pz         

 Vector    4  Occ=2.000000D+00  E=-5.847318D-01
              MO Center=  1.5D-01,  6.9D-03, -3.5D-03, r^2= 7.3D-01
   Bfn.  Coefficient  Atom+Function         Bfn.  Coefficient  Atom+Function  
  ----- ------------  ---------------      ----- ------------  ---------------
    46      0.546711  4 O  px                49      0.325428  4 O  px         
    44      0.316995  4 O  s                 65     -0.212766  5 H  s          
    74     -0.212632  6 H  s                 43      0.151645  4 O  s          

 Vector    5  Occ=2.000000D+00  E=-5.087933D-01
              MO Center=  7.9D-02,  3.8D-03, -1.7D-03, r^2= 6.8D-01
   Bfn.  Coefficient  Atom+Function         Bfn.  Coefficient  Atom+Function  
  ----- ------------  ---------------      ----- ------------  ---------------
    47      0.619762  4 O  py                50      0.452426  4 O  py         

 Vector    6  Occ=0.000000D+00  E= 3.124306D-02
              MO Center= -1.1D+00, -1.1D+00, -3.3D-02, r^2= 1.2D+01
   Bfn.  Coefficient  Atom+Function         Bfn.  Coefficient  Atom+Function  
  ----- ------------  ---------------      ----- ------------  ---------------
     4      1.065939  1 bq s                 26     -0.931442  2 bq s          
    45      0.911909  4 O  s                 76     -0.630120  6 H  s          
    67     -0.421051  5 H  s                 25     -0.409018  2 bq s          
    75     -0.381136  6 H  s                 34     -0.294072  3 bq s          
    66     -0.220844  5 H  s                 13      0.214814  1 bq pz         

 Vector    7  Occ=0.000000D+00  E= 5.643625D-02
              MO Center= -5.3D-01, -6.4D-01, -5.9D-01, r^2= 1.7D+01
   Bfn.  Coefficient  Atom+Function         Bfn.  Coefficient  Atom+Function  
  ----- ------------  ---------------      ----- ------------  ---------------
    76      2.799993  6 H  s                 67     -1.379835  5 H  s          
     4      0.865631  1 bq s                 35     -0.842768  3 bq s          
    45     -0.692184  4 O  s                 26     -0.659161  2 bq s          
    75      0.625463  6 H  s                 54      0.555861  4 O  pz         
    34     -0.399694  3 bq s                 13      0.277034  1 bq pz         

 Vector    8  Occ=0.000000D+00  E= 5.930299D-02
              MO Center= -5.2D-01, -9.1D-01,  8.3D-01, r^2= 1.7D+01
   Bfn.  Coefficient  Atom+Function         Bfn.  Coefficient  Atom+Function  
  ----- ------------  ---------------      ----- ------------  ---------------
    67      3.092404  5 H  s                 76     -1.335970  6 H  s          
    26     -1.008838  2 bq s                  4      0.889757  1 bq s          
    35     -0.839369  3 bq s                 45     -0.830574  4 O  s          
    66      0.659118  5 H  s                 54     -0.612352  4 O  pz         
    34     -0.304379  3 bq s                 25     -0.273296  2 bq s          

 Vector    9  Occ=0.000000D+00  E= 6.723152D-02
              MO Center=  6.9D-01, -2.3D+00,  3.4D-01, r^2= 1.6D+01
   Bfn.  Coefficient  Atom+Function         Bfn.  Coefficient  Atom+Function  
  ----- ------------  ---------------      ----- ------------  ---------------
    26      3.094422  2 bq s                 35     -2.952149  3 bq s          
    11      0.719626  1 bq px                34     -0.676547  3 bq s          
    25      0.552802  2 bq s                 67     -0.460323  5 H  s          
    45      0.443641  4 O  s                 76     -0.232297  6 H  s          
    39      0.197383  3 bq px                66     -0.184437  5 H  s          

 Vector   10  Occ=0.000000D+00  E= 1.596136D-01
              MO Center= -4.6D-02, -2.0D+00, -7.2D-01, r^2= 1.0D+01
   Bfn.  Coefficient  Atom+Function         Bfn.  Coefficient  Atom+Function  
  ----- ------------  ---------------      ----- ------------  ---------------
    45      3.430084  4 O  s                  4     -3.017919  1 bq s          
    13     -2.229224  1 bq pz                67      1.386501  5 H  s          
    25      1.340217  2 bq s                 34      1.340232  3 bq s          
    76     -1.282498  6 H  s                 12     -1.106721  1 bq py         
    53     -1.088641  4 O  py                75     -1.078468  6 H  s          

 Vector   11  Occ=0.000000D+00  E= 1.688453D-01
              MO Center= -5.6D-01, -1.5D+00,  1.1D-01, r^2= 1.1D+01
   Bfn.  Coefficient  Atom+Function         Bfn.  Coefficient  Atom+Function  
  ----- ------------  ---------------      ----- ------------  ---------------
    45      3.629574  4 O  s                  4      3.546428  1 bq s          
    25     -1.696057  2 bq s                 75     -1.643386  6 H  s          
    66     -1.544784  5 H  s                 26     -1.443395  2 bq s          
    34     -1.357013  3 bq s                 52     -1.260419  4 O  px         
    13      1.245830  1 bq pz                67     -0.726665  5 H  s          

 Vector   12  Occ=0.000000D+00  E= 1.888499D-01
              MO Center=  3.0D-01, -1.1D+00, -1.9D-01, r^2= 1.1D+01
   Bfn.  Coefficient  Atom+Function         Bfn.  Coefficient  Atom+Function  
  ----- ------------  ---------------      ----- ------------  ---------------
     4      4.352256  1 bq s                 45     -4.037049  4 O  s          
    52      1.800375  4 O  px                66      1.758526  5 H  s          
    75      1.715528  6 H  s                 35     -1.566713  3 bq s          
    53      1.187865  4 O  py                34     -1.133318  3 bq s          
    25     -0.933448  2 bq s                 13      0.730442  1 bq pz         

 Vector   13  Occ=0.000000D+00  E= 1.951501D-01
              MO Center= -3.6D-02, -1.5D+00, -5.4D-01, r^2= 1.0D+01
   Bfn.  Coefficient  Atom+Function         Bfn.  Coefficient  Atom+Function  
  ----- ------------  ---------------      ----- ------------  ---------------
    45      1.914670  4 O  s                 11      1.755829  1 bq px         
    12     -1.538269  1 bq py                52     -1.291271  4 O  px         
    25      1.173231  2 bq s                  4     -1.164586  1 bq s          
    35     -0.993426  3 bq s                 66     -0.975760  5 H  s          
    34     -0.873431  3 bq s                 75     -0.633223  6 H  s          

 Vector   14  Occ=0.000000D+00  E= 2.166947D-01
              MO Center=  4.5D-01, -1.8D+00, -7.6D-01, r^2= 9.4D+00
   Bfn.  Coefficient  Atom+Function         Bfn.  Coefficient  Atom+Function  
  ----- ------------  ---------------      ----- ------------  ---------------
    26      2.376446  2 bq s                 11      2.227275  1 bq px         
    34     -2.115784  3 bq s                 35     -2.039708  3 bq s          
    25      1.500886  2 bq s                  4      1.202565  1 bq s          
    12      1.174556  1 bq py                66      0.986025  5 H  s          
    76     -0.805352  6 H  s                 75     -0.658307  6 H  s          

 Vector   15  Occ=0.000000D+00  E= 2.307703D-01
              MO Center=  1.0D-01,  2.3D-01, -4.2D-01, r^2= 9.9D+00
   Bfn.  Coefficient  Atom+Function         Bfn.  Coefficient  Atom+Function  
  ----- ------------  ---------------      ----- ------------  ---------------
    76      2.498899  6 H  s                 75      2.178928  6 H  s          
    54      2.058710  4 O  pz                53     -1.664442  4 O  py         
    66     -1.579186  5 H  s                 67     -1.229916  5 H  s          
    45     -1.104000  4 O  s                 34     -0.797031  3 bq s          
    35     -0.798568  3 bq s                 82      0.595762  6 H  pz         

 Vector   16  Occ=0.000000D+00  E= 2.401311D-01
              MO Center= -7.8D-02,  1.6D-01,  8.2D-01, r^2= 9.5D+00
   Bfn.  Coefficient  Atom+Function         Bfn.  Coefficient  Atom+Function  
  ----- ------------  ---------------      ----- ------------  ---------------
    67      2.714131  5 H  s                 54     -2.179879  4 O  pz         
    66      1.993639  5 H  s                 45     -1.525265  4 O  s          
    26     -1.510343  2 bq s                 75     -1.457363  6 H  s          
    53     -1.151475  4 O  py                76     -0.867818  6 H  s          
    25     -0.724676  2 bq s                 73     -0.703318  5 H  pz         

 Vector   17  Occ=0.000000D+00  E= 2.819344D-01
              MO Center= -2.0D-01, -3.9D-01,  1.7D-01, r^2= 5.8D+00
   Bfn.  Coefficient  Atom+Function         Bfn.  Coefficient  Atom+Function  
  ----- ------------  ---------------      ----- ------------  ---------------
     4      1.670408  1 bq s                 54      1.161670  4 O  pz         
    26      0.908534  2 bq s                 34     -0.812378  3 bq s          
    66     -0.813367  5 H  s                 12      0.772078  1 bq py         
    35     -0.687952  3 bq s                 73     -0.573707  5 H  pz         
    75      0.475116  6 H  s                 82     -0.463355  6 H  pz         

 Vector   18  Occ=0.000000D+00  E= 2.950814D-01
              MO Center= -1.7D-02, -8.2D-01, -4.2D-01, r^2= 8.5D+00
   Bfn.  Coefficient  Atom+Function         Bfn.  Coefficient  Atom+Function  
  ----- ------------  ---------------      ----- ------------  ---------------
     4      2.555790  1 bq s                 12      2.291071  1 bq py         
    45     -2.210887  4 O  s                 53      1.975607  4 O  py         
    52     -0.824339  4 O  px                67     -0.769819  5 H  s          
    54      0.633486  4 O  pz                35      0.625909  3 bq s          
    25     -0.493538  2 bq s                 75     -0.475908  6 H  s          

 Vector   19  Occ=0.000000D+00  E= 3.360249D-01
              MO Center=  1.7D-02, -5.5D-01, -2.7D-02, r^2= 5.4D+00
   Bfn.  Coefficient  Atom+Function         Bfn.  Coefficient  Atom+Function  
  ----- ------------  ---------------      ----- ------------  ---------------
    45      4.081965  4 O  s                  4     -3.273795  1 bq s          
    66     -1.542655  5 H  s                 25      1.309170  2 bq s          
    75     -1.264307  6 H  s                 53     -1.214862  4 O  py         
    12     -1.060129  1 bq py                34      0.795037  3 bq s          
    80     -0.716470  6 H  px                71     -0.661630  5 H  px         

 Vector   20  Occ=0.000000D+00  E= 3.890931D-01
              MO Center= -2.9D-01, -1.6D+00, -5.9D-02, r^2= 6.4D+00
   Bfn.  Coefficient  Atom+Function         Bfn.  Coefficient  Atom+Function  
  ----- ------------  ---------------      ----- ------------  ---------------
     4      2.150474  1 bq s                 25     -2.151359  2 bq s          
    75     -1.803396  6 H  s                 11     -1.573819  1 bq px         
    13      1.038732  1 bq pz                45      0.907853  4 O  s          
    54     -0.818119  4 O  pz                72      0.695208  5 H  py         
    39      0.624515  3 bq px                30      0.601959  2 bq px         

 Vector   21  Occ=0.000000D+00  E= 4.122851D-01
              MO Center=  2.2D-02, -1.2D+00, -2.2D-01, r^2= 6.8D+00
   Bfn.  Coefficient  Atom+Function         Bfn.  Coefficient  Atom+Function  
  ----- ------------  ---------------      ----- ------------  ---------------
     4      3.412399  1 bq s                 34     -2.529220  3 bq s          
    45     -2.426832  4 O  s                 13      1.726490  1 bq pz         
    11      1.045963  1 bq px                76      0.921560  6 H  s          
    75      0.869731  6 H  s                 66      0.802202  5 H  s          
    72      0.741377  5 H  py                81     -0.739689  6 H  py         

 Vector   22  Occ=0.000000D+00  E= 4.419238D-01
              MO Center= -1.8D-01, -1.5D+00,  5.4D-02, r^2= 6.2D+00
   Bfn.  Coefficient  Atom+Function         Bfn.  Coefficient  Atom+Function  
  ----- ------------  ---------------      ----- ------------  ---------------
    45      3.136943  4 O  s                 75     -2.091873  6 H  s          
    34     -2.058004  3 bq s                  4      1.703973  1 bq s          
    66     -1.374007  5 H  s                 53     -1.124792  4 O  py         
    31     -1.031091  2 bq py                81      0.857661  6 H  py         
    52     -0.833055  4 O  px                72      0.574771  5 H  py         

 Vector   23  Occ=0.000000D+00  E= 4.509282D-01
              MO Center= -8.1D-02, -1.8D+00, -1.1D-01, r^2= 6.0D+00
   Bfn.  Coefficient  Atom+Function         Bfn.  Coefficient  Atom+Function  
  ----- ------------  ---------------      ----- ------------  ---------------
     4      6.062770  1 bq s                 25     -3.360590  2 bq s          
    34     -3.071119  3 bq s                 75     -0.929818  6 H  s          
    13      0.922141  1 bq pz                32      0.871574  2 bq pz         
    66     -0.870107  5 H  s                 41      0.693908  3 bq pz         
    45      0.662538  4 O  s                 80     -0.506844  6 H  px         

 Vector   24  Occ=0.000000D+00  E= 4.841931D-01
              MO Center= -1.1D-01, -1.7D+00, -4.3D-02, r^2= 6.5D+00
   Bfn.  Coefficient  Atom+Function         Bfn.  Coefficient  Atom+Function  
  ----- ------------  ---------------      ----- ------------  ---------------
     4      8.811915  1 bq s                 25     -4.437642  2 bq s          
    34     -3.337760  3 bq s                 45     -2.922737  4 O  s          
    13      2.233403  1 bq pz                75      1.409685  6 H  s          
    30     -0.946794  2 bq px                53      0.876410  4 O  py         
    12      0.805165  1 bq py                81      0.709929  6 H  py         

 Vector   25  Occ=0.000000D+00  E= 4.887194D-01
              MO Center= -6.1D-02, -1.8D+00, -3.3D-02, r^2= 5.9D+00
   Bfn.  Coefficient  Atom+Function         Bfn.  Coefficient  Atom+Function  
  ----- ------------  ---------------      ----- ------------  ---------------
    75      1.551043  6 H  s                 66     -1.321891  5 H  s          
    82      1.222738  6 H  pz                73      1.006084  5 H  pz         
    30      0.998895  2 bq px                32     -0.857561  2 bq pz         
    13      0.825140  1 bq pz                25      0.773993  2 bq s          
     3     -0.759191  1 bq s                 45     -0.754666  4 O  s          

 Vector   26  Occ=0.000000D+00  E= 5.045443D-01
              MO Center= -2.3D-02, -6.0D-01, -1.4D-01, r^2= 6.7D+00
   Bfn.  Coefficient  Atom+Function         Bfn.  Coefficient  Atom+Function  
  ----- ------------  ---------------      ----- ------------  ---------------
    45      9.010436  4 O  s                 66     -4.056988  5 H  s          
    75     -3.843460  6 H  s                 52     -2.405714  4 O  px         
     4     -1.766932  1 bq s                 12     -1.561250  1 bq py         
    53     -1.534482  4 O  py                34     -1.264381  3 bq s          
    49     -0.848445  4 O  px                11      0.815994  1 bq px         


 center of mass
 --------------
 x =   0.09889437 y =   0.00449326 z =  -0.00224480

 moments of inertia (a.u.)
 ------------------
           4.171998456107          -0.084314085274          -0.069146082804
          -0.084314085274           6.334094446778           0.618318026056
          -0.069146082804           0.618318026056           2.357733009498

  Mulliken analysis of the total density
  --------------------------------------

    Atom       Charge   Shell Charges
 -----------   ------   -------------------------------------------------------
    1 X    0    -0.00   0.00  0.00  0.00  0.00  0.00 -0.00 -0.00  0.00 -0.00
    2 X    0     0.01  -0.00  0.01 -0.00  0.00  0.01
    3 X    0    -0.01   0.00 -0.01 -0.00  0.00 -0.00
    4 O    8     8.36   2.00  0.84  0.82  0.09  2.81  1.66  0.13  0.01 -0.02
    5 H    1     0.82   0.72  0.01 -0.00  0.08  0.02
    6 H    1     0.82   0.72  0.00 -0.00  0.08  0.02

       Multipole analysis of the density wrt the origin
       ------------------------------------------------

     L   x y z        total         open         nuclear
     -   - - -        -----         ----         -------
     0   0 0 0     -0.000000      0.000000     10.000000

     1   1 0 0     -0.787811      0.000000      0.000000
     1   0 1 0     -0.036053      0.000000      0.000000
     1   0 0 1      0.017666      0.000000     -0.000000

     2   2 0 0     -4.647010      0.000000      2.020308
     2   1 1 0      0.028963      0.000000      0.073570
     2   1 0 1      0.047137      0.000000      0.073650
     2   0 2 0     -5.601613      0.000000      0.096601
     2   0 1 1     -0.367012      0.000000     -0.613288
     2   0 0 2     -3.235033      0.000000      4.042433


------------------------------------------------------------
EAF file 0: "./input_B_AB.aoints.0" size=8388608 bytes
------------------------------------------------------------
               write      read    awrite     aread      wait
               -----      ----    ------     -----      ----
     calls:       16         3         0        13        13
   data(b): 8.39e+06  1.57e+06  0.00e+00  6.82e+06
   time(s): 0.00e+00  0.00e+00  0.00e+00  0.00e+00  0.00e+00
rate(mb/s): 0.00e+00  0.00e+00
------------------------------------------------------------


 Parallel integral file used     141 records with       0 large values



                   Four-Index Transformation
                   -------------------------
          Number of basis functions:             82
          Number of shells:                      38
          Number of occupied orbitals:            5
          Number of occ. correlated orbitals:     5
          Block length:                          16
          Superscript MO index range:      1 -    5
          Subscript MO index range:        1 -   82
          MO coefficients read from:  ./input_B_AB.movecs      
          Number of operator matrices in core:   30
          Half-transformed integrals produced

     Pass:    1     Index range:    1  -    5     Time:      1.03
 ------------------------------------------
 MP2 Energy (coupled cluster initial guess)
 ------------------------------------------
 Reference energy:            -76.041204997749404
 MP2 Corr. energy:             -0.223394771633393
 Total MP2 energy:            -76.264599769382798


 ****************************************************************************
              the segmented parallel ccsd program:    8 nodes
 ****************************************************************************




 level of theory    ccsd(t)
 number of core         0
 number of occupied     5
 number of virtual     77
 number of deleted      0
 total functions       82
 number of shells      38
 basis label          566



   ***** ccsd parameters *****
   iprt   =     0
   convi  =  0.100E-05
   maxit  =    20
   mxvec  =     5
 memory           1073731972
  Using  1 OpenMP thread(s) in CCSD
  avail0,avail1,avail0-avail1                  3790                 3790                    0
  avail0,avail1,avail0-avail1                  3790                 3790                    0
  avail0,avail1,avail0-avail1                  3790                 3805                  -15
  avail0,avail1,avail0-avail1                  3790                 3805                  -15
  Restarting from old vector in ./input_B_AB.t2


-------------------------------------------------------------------------
 iter     correlation     delta       rms       T2     Non-T2      Main
             energy      energy      error      ampl     ampl      Block
                                                time     time      time
-------------------------------------------------------------------------
   1     -0.2263829989 -2.264D-01  7.112D-02     2.03     0.00     1.92
   2     -0.2277184859 -1.335D-03  9.232D-02     1.75     0.00     1.63
   3     -0.2302588954 -2.540D-03  2.951D-02     1.63     0.00     1.55
   4     -0.2306080843 -3.492D-04  1.208D-02     2.09     0.00     1.99
   5     -0.2307575554 -1.495D-04  1.705D-03     1.52     0.00     1.44
   6     -0.2308117449 -5.419D-05  7.310D-04     1.85     0.00     1.75
   7     -0.2308162478 -4.503D-06  1.605D-04     2.28     0.00     1.86
   8     -0.2308157387  5.091D-07  6.869D-05     1.88     0.00     1.68
   9     -0.2308160519 -3.132D-07  5.943D-05     1.60     0.00     1.52
  10     -0.2308154076  6.443D-07  8.465D-06     1.90     0.00     1.82
  11     -0.2308154477 -4.001D-08  9.509D-06     1.72     0.00     1.59
  12     -0.2308154389  8.715D-09  3.375D-06     1.70     0.00     1.63
  13     -0.2308154714 -3.246D-08  1.131D-06     2.12     0.00     2.04
  14     -0.2308154861 -1.468D-08  9.050D-07     1.68     0.00     1.61
                  *************converged*************
-------------------------------------------------------------------------

 -----------
 CCSD Energy
 -----------
 Reference energy:             -76.041204997749404
 CCSD corr. energy:             -0.230815486072278
 Total CCSD energy:            -76.272020483821677


 --------------------------------
 Spin Component Scaled (SCS) CCSD
 --------------------------------
 Same spin contribution:                 -0.050372721464872
 Same spin scaling factor:                1.130000000000000
 Opposite spin contribution:             -0.180442764607405
 Opposite spin scaling fact.:             1.270000000000000
 SCS-CCSD correlation energy:            -0.286083486306710
 Total SCS-CCSD energy:                 -76.327288484056126
 memory           1073731972


*********triples calculation*********

nkpass=    1; nvpass=    1; memdrv=         170401; memtrn=         942207; memavail=     1073731572
 memory available/node                     1073731572
 total number of virtual orbitals        77
 number of virtuals per integral pass    77
 number of integral evaluations           1
 number of occupied per triples pass      5
 number of triples passes                 1

 commencing integral evaluation        1 at          28.10
  symmetry use  F
task         2 out of       741 done   0%  at       0.1 secs
task        39 out of       741 done   5%  at       0.2 secs
task        76 out of       741 done  10%  at       0.3 secs
task       116 out of       741 done  15%  at       0.5 secs
task       154 out of       741 done  20%  at       0.7 secs
task       191 out of       741 done  25%  at       0.8 secs
task       231 out of       741 done  31%  at       0.9 secs
task       264 out of       741 done  35%  at       1.0 secs
task       297 out of       741 done  40%  at       1.0 secs
task       335 out of       741 done  45%  at       1.1 secs
task       377 out of       741 done  50%  at       1.2 secs
task       413 out of       741 done  55%  at       1.2 secs
task       450 out of       741 done  60%  at       1.3 secs
task       485 out of       741 done  65%  at       1.4 secs
task       524 out of       741 done  70%  at       1.4 secs
task       558 out of       741 done  75%  at       1.5 secs
task       603 out of       741 done  81%  at       1.6 secs
task       634 out of       741 done  85%  at       1.6 secs
task       675 out of       741 done  91%  at       1.6 secs
task       707 out of       741 done  95%  at       1.7 secs
 commencing triples evaluation - blocking       1
 ccsd(t): done        1 out of       77 progress:    1.3%
 ccsd(t): done        2 out of       77 progress:    2.6%
 ccsd(t): done        3 out of       77 progress:    3.9%
 ccsd(t): done        4 out of       77 progress:    5.2%
 ccsd(t): done        5 out of       77 progress:    6.5%
 ccsd(t): done        6 out of       77 progress:    7.8%
 ccsd(t): done        7 out of       77 progress:    9.1%
 ccsd(t): done        8 out of       77 progress:   10.4%
 ccsd(t): done        9 out of       77 progress:   11.7%
 ccsd(t): done       10 out of       77 progress:   13.0%
 ccsd(t): done       11 out of       77 progress:   14.3%
 ccsd(t): done       12 out of       77 progress:   15.6%
 ccsd(t): done       13 out of       77 progress:   16.9%
 ccsd(t): done       14 out of       77 progress:   18.2%
 ccsd(t): done       15 out of       77 progress:   19.5%
 ccsd(t): done       16 out of       77 progress:   20.8%
 ccsd(t): done       17 out of       77 progress:   22.1%
 ccsd(t): done       18 out of       77 progress:   23.4%
 ccsd(t): done       19 out of       77 progress:   24.7%
 ccsd(t): done       20 out of       77 progress:   26.0%
 ccsd(t): done       21 out of       77 progress:   27.3%
 ccsd(t): done       22 out of       77 progress:   28.6%
 ccsd(t): done       23 out of       77 progress:   29.9%
 ccsd(t): done       24 out of       77 progress:   31.2%
 ccsd(t): done       25 out of       77 progress:   32.5%
 ccsd(t): done       26 out of       77 progress:   33.8%
 ccsd(t): done       27 out of       77 progress:   35.1%
 ccsd(t): done       28 out of       77 progress:   36.4%
 ccsd(t): done       29 out of       77 progress:   37.7%
 ccsd(t): done       30 out of       77 progress:   39.0%
 ccsd(t): done       31 out of       77 progress:   40.3%
 ccsd(t): done       32 out of       77 progress:   41.6%
 ccsd(t): done       33 out of       77 progress:   42.9%
 ccsd(t): done       34 out of       77 progress:   44.2%
 ccsd(t): done       35 out of       77 progress:   45.5%
 ccsd(t): done       36 out of       77 progress:   46.8%
 ccsd(t): done       37 out of       77 progress:   48.1%
 ccsd(t): done       38 out of       77 progress:   49.4%
 ccsd(t): done       39 out of       77 progress:   50.6%
 ccsd(t): done       40 out of       77 progress:   51.9%
 ccsd(t): done       41 out of       77 progress:   53.2%
 ccsd(t): done       42 out of       77 progress:   54.5%
 ccsd(t): done       43 out of       77 progress:   55.8%
 ccsd(t): done       44 out of       77 progress:   57.1%
 ccsd(t): done       45 out of       77 progress:   58.4%
 ccsd(t): done       46 out of       77 progress:   59.7%
 ccsd(t): done       47 out of       77 progress:   61.0%
 ccsd(t): done       48 out of       77 progress:   62.3%
 ccsd(t): done       49 out of       77 progress:   63.6%
 ccsd(t): done       50 out of       77 progress:   64.9%
 ccsd(t): done       51 out of       77 progress:   66.2%
 ccsd(t): done       52 out of       77 progress:   67.5%
 ccsd(t): done       53 out of       77 progress:   68.8%
 ccsd(t): done       54 out of       77 progress:   70.1%
 ccsd(t): done       55 out of       77 progress:   71.4%
 ccsd(t): done       56 out of       77 progress:   72.7%
 ccsd(t): done       57 out of       77 progress:   74.0%
 ccsd(t): done       58 out of       77 progress:   75.3%
 ccsd(t): done       59 out of       77 progress:   76.6%
 ccsd(t): done       60 out of       77 progress:   77.9%
 ccsd(t): done       61 out of       77 progress:   79.2%
 ccsd(t): done       62 out of       77 progress:   80.5%
 ccsd(t): done       63 out of       77 progress:   81.8%
 ccsd(t): done       64 out of       77 progress:   83.1%
 ccsd(t): done       65 out of       77 progress:   84.4%
 ccsd(t): done       66 out of       77 progress:   85.7%
 ccsd(t): done       67 out of       77 progress:   87.0%
 ccsd(t): done       68 out of       77 progress:   88.3%
 ccsd(t): done       69 out of       77 progress:   89.6%
 ccsd(t): done       70 out of       77 progress:   90.9%
 ccsd(t): done       71 out of       77 progress:   92.2%
 ccsd(t): done       72 out of       77 progress:   93.5%
 ccsd(t): done       73 out of       77 progress:   94.8%
 ccsd(t): done       74 out of       77 progress:   96.1%
 ccsd(t): done       75 out of       77 progress:   97.4%
 ccsd(t): done       76 out of       77 progress:   98.7%
 ccsd(t): done       77 out of       77 progress:  100.0%
 Time for integral evaluation pass     1        1.75
 Time for triples evaluation pass      1        1.05

 pseudo-e(mp4)  -0.58304713217098E-02
 pseudo-e(mp5)   0.40851378691643E-03
        e(t)    -0.54219575347934E-02

 --------------
 CCSD(T) Energy
 --------------
 Reference energy:                     -76.041204997749404

 CCSD corr. energy:                     -0.230815486072278
 T(CCSD) corr. energy:                  -0.005830471321710
 Total CCSD+T(CCSD) energy:            -76.277850955143393

 CCSD corr. energy:                     -0.230815486072278
 (T) corr. energy:                      -0.005421957534793
 Total CCSD(T) energy:                 -76.277442441356470

 routine      calls  cpu(0)   cpu-min  cpu-ave  cpu-max   i/o 
 aoccsd          1     0.02     0.02     0.02     0.02    0.00
 iterdrv         1     0.26     0.26     0.26     0.26    0.00
 pampt          14     0.26     0.25     0.26     0.26    0.00
 t2pm           14     0.28     0.28     0.28     0.28    0.00
 sxy            14     3.15     0.55     1.90     3.15    0.00
 ints       906970     6.34     5.95     6.07     6.34    0.00
 f_write        12     0.00     0.00     0.00     0.00    0.00
 t2eri        1302     0.90     0.85     0.89     0.93    0.00
 idx2         1302    13.41    13.41    14.94    16.45    0.00
 idx34          14     0.01     0.01     0.01     0.01    0.00
 ht2pm          14     0.09     0.09     0.09     0.09    0.00
 itm            14     1.08     1.08     1.08     1.08    0.00
 pdiis          14     0.01     0.00     0.00     0.01    0.00
 r_read         78     0.02     0.02     0.03     0.03    0.00
 triples         1     0.00     0.00     0.00     0.00    0.00
 rdtrpo          1     0.00     0.00     0.00     0.00    0.00
 trpmos          1     1.75     1.75     1.75     1.75    0.00
 trpdrv          1     0.59     0.58     0.61     0.65    0.00
 dovvv        1500     0.34     0.30     0.32     0.34    0.00
 doooo        1500     0.04     0.03     0.04     0.04    0.00
 tengy        1250     0.08     0.07     0.08     0.08    0.00
 Total                28.64    28.62    28.63    28.64    0.00

 Task  times  cpu:       30.9s     wall:       30.9s


                                NWChem Input Module
                                -------------------


 Summary of allocated global arrays
-----------------------------------
  No active global arrays


MA_summarize_allocated_blocks: starting scan ...
MA_summarize_allocated_blocks: scan completed: 0 heap blocks, 0 stack blocks
MA usage statistics:

	allocation statistics:
					      heap	     stack
					      ----	     -----
	current number of blocks	         0	         0
	maximum number of blocks	        17	        41
	current total bytes		         0	         0
	maximum total bytes		  13130544	7731415912
	maximum total K-bytes		     13131	   7731416
	maximum total M-bytes		        14	      7732


                                     CITATION
                                     --------
                Please cite the following reference when publishing
                           results obtained with NWChem:

          E. Apra, E. J. Bylaska, W. A. de Jong, N. Govind, K. Kowalski,
       T. P. Straatsma, M. Valiev, H. J. J. van Dam, Y. Alexeev, J. Anchell,
       V. Anisimov, F. W. Aquino, R. Atta-Fynn, J. Autschbach, N. P. Bauman,
     J. C. Becca, D. E. Bernholdt, K. Bhaskaran-Nair, S. Bogatko, P. Borowski,
         J. Boschen, J. Brabec, A. Bruner, E. Cauet, Y. Chen, G. N. Chuev,
      C. J. Cramer, J. Daily, M. J. O. Deegan, T. H. Dunning Jr., M. Dupuis,
   K. G. Dyall, G. I. Fann, S. A. Fischer, A. Fonari, H. Fruchtl, L. Gagliardi,
      J. Garza, N. Gawande, S. Ghosh, K. Glaesemann, A. W. Gotz, J. Hammond,
       V. Helms, E. D. Hermes, K. Hirao, S. Hirata, M. Jacquelin, L. Jensen,
   B. G. Johnson, H. Jonsson, R. A. Kendall, M. Klemm, R. Kobayashi, V. Konkov,
      S. Krishnamoorthy, M. Krishnan, Z. Lin, R. D. Lins, R. J. Littlefield,
      A. J. Logsdail, K. Lopata, W. Ma, A. V. Marenich, J. Martin del Campo,
   D. Mejia-Rodriguez, J. E. Moore, J. M. Mullin, T. Nakajima, D. R. Nascimento,
    J. A. Nichols, P. J. Nichols, J. Nieplocha, A. Otero-de-la-Roza, B. Palmer,
    A. Panyala, T. Pirojsirikul, B. Peng, R. Peverati, J. Pittner, L. Pollack,
   R. M. Richard, P. Sadayappan, G. C. Schatz, W. A. Shelton, D. W. Silverstein,
   D. M. A. Smith, T. A. Soares, D. Song, M. Swart, H. L. Taylor, G. S. Thomas,
            V. Tipparaju, D. G. Truhlar, K. Tsemekhman, T. Van Voorhis,
      A. Vazquez-Mayagoitia, P. Verma, O. Villa, A. Vishnu, K. D. Vogiatzis,
        D. Wang, J. H. Weare, M. J. Williamson, T. L. Windus, K. Wolinski,
        A. T. Wong, Q. Wu, C. Yang, Q. Yu, M. Zacharias, Z. Zhang, Y. Zhao,
                                and R. J. Harrison
                        "NWChem: Past, present, and future
                         J. Chem. Phys. 152, 184102 (2020)
                               doi:10.1063/5.0004997

                                      AUTHORS
                                      -------
  E. Apra, E. J. Bylaska, N. Govind, K. Kowalski, M. Valiev, D. Mejia-Rodriguez,
       A. Kunitsa, N. P. Bauman, A. Panyala, W. A. de Jong, T. P. Straatsma,
   H. J. J. van Dam, D. Wang, T. L. Windus, J. Hammond, J. Autschbach, A. Woods,
    K. Bhaskaran-Nair, J. Brabec, K. Lopata, S. A. Fischer, S. Krishnamoorthy,
     M. Jacquelin, W. Ma, M. Klemm, O. Villa, Y. Chen, V. Anisimov, F. Aquino,
     S. Hirata, M. T. Hackler, E. Hermes, L. Jensen, J. E. Moore, J. C. Becca,
      V. Konjkov, T. Risthaus, M. Malagoli, A. Marenich, A. Otero-de-la-Roza,
        J. Mullin, P. Nichols, R. Peverati, J. Pittner, Y. Zhao, P.-D. Fan,
        A. Fonari, M. J. Williamson, R. J. Harrison, J. R. Rehr, M. Dupuis,
     D. Silverstein, D. M. A. Smith, J. Nieplocha, V. Tipparaju, M. Krishnan,
     B. E. Van Kuiken, A. Vazquez-Mayagoitia, M. Swart, Q. Wu, T. Van Voorhis,
     A. A. Auer, M. Nooijen, L. D. Crosby, E. Brown, G. Cisneros, G. I. Fann,
   H. Fruchtl, J. Garza, K. Hirao, R. A. Kendall, J. A. Nichols, K. Tsemekhman,
    K. Wolinski, J. Anchell, D. E. Bernholdt, P. Borowski, T. Clark, D. Clerc,
   H. Dachsel, M. J. O. Deegan, K. Dyall, D. Elwood, E. Glendening, M. Gutowski,
   A. C. Hess, J. Jaffe, B. G. Johnson, J. Ju, R. Kobayashi, R. Kutteh, Z. Lin,
   R. Littlefield, X. Long, B. Meng, T. Nakajima, S. Niu, L. Pollack, M. Rosing,
   K. Glaesemann, G. Sandrone, M. Stave, H. Taylor, G. Thomas, J. H. van Lenthe,
                               A. T. Wong, Z. Zhang.

 Total times  cpu:       30.9s     wall:       30.9s
